p cnf 462 6096
-28 -48 -61 -68 -103 -116 -123 -150 -157 -176 -222 -238 -251 -270 -332 -341 -403 -422 -435 -451 0
-28 -48 -61 -68 -103 -116 -123 -150 -157 -176 -222 -234 -274 -287 -332 -341 -386 -399 -439 -451 0
-28 -48 -61 -68 -103 -116 -123 -150 -157 -176 -222 -234 -270 -315 -328 -345 -358 -403 -439 -451 0
-28 -48 -61 -68 -103 -116 -123 -150 -157 -176 -218 -238 -274 -309 -332 -341 -364 -399 -435 -455 0
-28 -48 -61 -68 -103 -116 -123 -150 -157 -176 -218 -238 -270 -293 -328 -345 -380 -403 -435 -455 0
-28 -48 -61 -68 -103 -116 -123 -150 -157 -176 -218 -234 -257 -274 -328 -345 -399 -416 -439 -455 0
-28 -48 -61 -68 -103 -116 -123 -150 -157 -176 -212 -251 -287 -309 -332 -341 -364 -386 -422 -461 0
-28 -48 -61 -68 -103 -116 -123 -150 -157 -176 -212 -251 -270 -293 -315 -358 -380 -403 -422 -461 0
-28 -48 -61 -68 -103 -116 -123 -150 -157 -176 -212 -234 -257 -287 -315 -358 -386 -416 -439 -461 0
-28 -48 -61 -68 -103 -116 -123 -150 -157 -176 -212 -218 -257 -293 -309 -364 -380 -416 -455 -461 0
-28 -48 -61 -68 -103 -116 -123 -150 -157 -176 -212 -218 -234 -270 -332 -341 -403 -439 -455 -461 0
-28 -48 -61 -68 -103 -116 -123 -150 -157 -176 -211 -257 -293 -315 -328 -345 -358 -380 -416 -462 0
-28 -48 -61 -68 -103 -116 -123 -150 -157 -176 -211 -257 -274 -287 -309 -364 -386 -399 -416 -462 0
-28 -48 -61 -68 -103 -116 -123 -150 -157 -176 -211 -238 -251 -293 -309 -364 -380 -422 -435 -462 0
-28 -48 -61 -68 -103 -116 -123 -150 -157 -176 -211 -222 -251 -287 -315 -358 -386 -422 -451 -462 0
-28 -48 -61 -68 -103 -116 -123 -150 -157 -176 -211 -222 -238 -274 -328 -345 -399 -435 -451 -462 0
-28 -48 -58 -71 -103 -113 -126 -147 -160 -176 -222 -241 -248 -270 -332 -341 -403 -425 -432 -451 0
-28 -48 -58 -71 -103 -113 -126 -147 -160 -176 -222 -234 -277 -284 -332 -341 -389 -396 -439 -451 0
-28 -48 -58 -71 -103 -113 -126 -147 -160 -176 -222 -234 -270 -318 -325 -348 -355 -403 -439 -451 0
-28 -48 -58 -71 -103 -113 -126 -147 -160 -176 -217 -241 -277 -309 -332 -341 -364 -396 -432 -456 0
-28 -48 -58 -71 -103 -113 -126 -147 -160 -176 -217 -241 -270 -293 -325 -348 -380 -403 -432 -456 0
-28 -48 -58 -71 -103 -113 -126 -147 -160 -176 -217 -234 -257 -277 -325 -348 -396 -416 -439 -456 0
-28 -48 -58 -71 -103 -113 -126 -147 -160 -176 -213 -248 -284 -309 -332 -341 -364 -389 -425 -460 0
-28 -48 -58 -71 -103 -113 -126 -147 -160 -176 -213 -248 -270 -293 -318 -355 -380 -403 -425 -460 0
-28 -48 -58 -71 -103 -113 -126 -147 -160 -176 -213 -234 -257 -284 -318 -355 -389 -416 -439 -460 0
-28 -48 -58 -71 -103 -113 -126 -147 -160 -176 -213 -217 -257 -293 -309 -364 -380 -416 -456 -460 0
-28 -48 -58 -71 -103 -113 -126 -147 -160 -176 -213 -217 -234 -270 -332 -341 -403 -439 -456 -460 0
-28 -48 -58 -71 -103 -113 -126 -147 -160 -176 -211 -257 -293 -318 -325 -348 -355 -380 -416 -462 0
-28 -48 -58 -71 -103 -113 -126 -147 -160 -176 -211 -257 -277 -284 -309 -364 -389 -396 -416 -462 0
-28 -48 -58 -71 -103 -113 -126 -147 -160 -176 -211 -241 -248 -293 -309 -364 -380 -425 -432 -462 0
-28 -48 -58 -71 -103 -113 -126 -147 -160 -176 -211 -222 -248 -284 -318 -355 -389 -425 -451 -462 0
-28 -48 -58 -71 -103 -113 -126 -147 -160 -176 -211 -222 -241 -277 -325 -348 -396 -432 -451 -462 0
-28 -48 -54 -77 -103 -109 -132 -143 -166 -176 -218 -241 -248 -274 -328 -345 -399 -425 -432 -455 0
-28 -48 -54 -77 -103 -109 -132 -143 -166 -176 -218 -238 -277 -284 -328 -345 -389 -396 -435 -455 0
-28 -48 -54 -77 -103 -109 -132 -143 -166 -176 -218 -238 -274 -318 -325 -348 -355 -399 -435 -455 0
-28 -48 -54 -77 -103 -109 -132 -143 -166 -176 -217 -241 -277 -315 -328 -345 -358 -396 -432 -456 0
-28 -48 -54 -77 -103 -109 -132 -143 -166 -176 -217 -241 -274 -287 -325 -348 -386 -399 -432 -456 0
-28 -48 -54 -77 -103 -109 -132 -143 -166 -176 -217 -238 -251 -277 -325 -348 -396 -422 -435 -456 0
-28 -48 -54 -77 -103 -109 -132 -143 -166 -176 -213 -248 -284 -315 -328 -345 -358 -389 -425 -460 0
-28 -48 -54 -77 -103 -109 -132 -143 -166 -176 -213 -248 -274 -287 -318 -355 -386 -399 -425 -460 0
-28 -48 -54 -77 -103 -109 -132 -143 -166 -176 -213 -238 -251 -284 -318 -355 -389 -422 -435 -460 0
-28 -48 -54 -77 -103 -109 -132 -143 -166 -176 -213 -217 -251 -287 -315 -358 -386 -422 -456 -460 0
-28 -48 -54 -77 -103 -109 -132 -143 -166 -176 -213 -217 -238 -274 -328 -345 -399 -435 -456 -460 0
-28 -48 -54 -77 -103 -109 -132 -143 -166 -176 -212 -251 -287 -318 -325 -348 -355 -386 -422 -461 0
-28 -48 -54 -77 -103 -109 -132 -143 -166 -176 -212 -251 -277 -284 -315 -358 -389 -396 -422 -461 0
-28 -48 -54 -77 -103 -109 -132 -143 -166 -176 -212 -241 -248 -287 -315 -358 -386 -425 -432 -461 0
-28 -48 -54 -77 -103 -109 -132 -143 -166 -176 -212 -218 -248 -284 -318 -355 -389 -425 -455 -461 0
-28 -48 -54 -77 -103 -109 -132 -143 -166 -176 -212 -218 -241 -277 -325 -348 -396 -432 -455 -461 0
-28 -47 -60 -67 -104 -117 -124 -150 -157 -176 -222 -238 -251 -271 -333 -340 -402 -422 -435 -451 0
-28 -47 -60 -67 -104 -117 -124 -150 -157 -176 -222 -234 -275 -288 -333 -340 -385 -398 -439 -451 0
-28 -47 -60 -67 -104 -117 -124 -150 -157 -176 -222 -234 -271 -316 -329 -344 -357 -402 -439 -451 0
-28 -47 -60 -67 -104 -117 -124 -150 -157 -176 -218 -238 -275 -310 -333 -340 -363 -398 -435 -455 0
-28 -47 -60 -67 -104 -117 -124 -150 -157 -176 -218 -238 -271 -294 -329 -344 -379 -402 -435 -455 0
-28 -47 -60 -67 -104 -117 -124 -150 -157 -176 -218 -234 -257 -275 -329 -344 -398 -416 -439 -455 0
-28 -47 -60 -67 -104 -117 -124 -150 -157 -176 -212 -251 -288 -310 -333 -340 -363 -385 -422 -461 0
-28 -47 -60 -67 -104 -117 -124 -150 -157 -176 -212 -251 -271 -294 -316 -357 -379 -402 -422 -461 0
-28 -47 -60 -67 -104 -117 -124 -150 -157 -176 -212 -234 -257 -288 -316 -357 -385 -416 -439 -461 0
-28 -47 -60 -67 -104 -117 -124 -150 -157 -176 -212 -218 -257 -294 -310 -363 -379 -416 -455 -461 0
-28 -47 -60 -67 -104 -117 -124 -150 -157 -176 -212 -218 -234 -271 -333 -340 -402 -439 -455 -461 0
-28 -47 -60 -67 -104 -117 -124 -150 -157 -176 -211 -257 -294 -316 -329 -344 -357 -379 -416 -462 0
-28 -47 -60 -67 -104 -117 -124 -150 -157 -176 -211 -257 -275 -288 -310 -363 -385 -398 -416 -462 0
-28 -47 -60 -67 -104 -117 -124 -150 -157 -176 -211 -238 -251 -294 -310 -363 -379 -422 -435 -462 0
-28 -47 -60 -67 -104 -117 -124 -150 -157 -176 -211 -222 -251 -288 -316 -357 -385 -422 -451 -462 0
-28 -47 -60 -67 -104 -117 -124 -150 -157 -176 -211 -222 -238 -275 -329 -344 -398 -435 -451 -462 0
-28 -47 -57 -70 -104 -114 -127 -147 -160 -176 -222 -241 -248 -271 -333 -340 -402 -425 -432 -451 0
-28 -47 -57 -70 -104 -114 -127 -147 -160 -176 -222 -234 -278 -285 -333 -340 -388 -395 -439 -451 0
-28 -47 -57 -70 -104 -114 -127 -147 -160 -176 -222 -234 -271 -319 -326 -347 -354 -402 -439 -451 0
-28 -47 -57 -70 -104 -114 -127 -147 -160 -176 -217 -241 -278 -310 -333 -340 -363 -395 -432 -456 0
-28 -47 -57 -70 -104 -114 -127 -147 -160 -176 -217 -241 -271 -294 -326 -347 -379 -402 -432 -456 0
-28 -47 -57 -70 -104 -114 -127 -147 -160 -176 -217 -234 -257 -278 -326 -347 -395 -416 -439 -456 0
-28 -47 -57 -70 -104 -114 -127 -147 -160 -176 -213 -248 -285 -310 -333 -340 -363 -388 -425 -460 0
-28 -47 -57 -70 -104 -114 -127 -147 -160 -176 -213 -248 -271 -294 -319 -354 -379 -402 -425 -460 0
-28 -47 -57 -70 -104 -114 -127 -147 -160 -176 -213 -234 -257 -285 -319 -354 -388 -416 -439 -460 0
-28 -47 -57 -70 -104 -114 -127 -147 -160 -176 -213 -217 -257 -294 -310 -363 -379 -416 -456 -460 0
-28 -47 -57 -70 -104 -114 -127 -147 -160 -176 -213 -217 -234 -271 -333 -340 -402 -439 -456 -460 0
-28 -47 -57 -70 -104 -114 -127 -147 -160 -176 -211 -257 -294 -319 -326 -347 -354 -379 -416 -462 0
-28 -47 -57 -70 -104 -114 -127 -147 -160 -176 -211 -257 -278 -285 -310 -363 -388 -395 -416 -462 0
-28 -47 -57 -70 -104 -114 -127 -147 -160 -176 -211 -241 -248 -294 -310 -363 -379 -425 -432 -462 0
-28 -47 -57 -70 -104 -114 -127 -147 -160 -176 -211 -222 -248 -285 -319 -354 -388 -425 -451 -462 0
-28 -47 -57 -70 -104 -114 -127 -147 -160 -176 -211 -222 -241 -278 -326 -347 -395 -432 -451 -462 0
-28 -47 -53 -76 -104 -110 -133 -143 -166 -176 -218 -241 -248 -275 -329 -344 -398 -425 -432 -455 0
-28 -47 -53 -76 -104 -110 -133 -143 -166 -176 -218 -238 -278 -285 -329 -344 -388 -395 -435 -455 0
-28 -47 -53 -76 -104 -110 -133 -143 -166 -176 -218 -238 -275 -319 -326 -347 -354 -398 -435 -455 0
-28 -47 -53 -76 -104 -110 -133 -143 -166 -176 -217 -241 -278 -316 -329 -344 -357 -395 -432 -456 0
-28 -47 -53 -76 -104 -110 -133 -143 -166 -176 -217 -241 -275 -288 -326 -347 -385 -398 -432 -456 0
-28 -47 -53 -76 -104 -110 -133 -143 -166 -176 -217 -238 -251 -278 -326 -347 -395 -422 -435 -456 0
-28 -47 -53 -76 -104 -110 -133 -143 -166 -176 -213 -248 -285 -316 -329 -344 -357 -388 -425 -460 0
-28 -47 -53 -76 -104 -110 -133 -143 -166 -176 -213 -248 -275 -288 -319 -354 -385 -398 -425 -460 0
-28 -47 -53 -76 -104 -110 -133 -143 -166 -176 -213 -238 -251 -285 -319 -354 -388 -422 -435 -460 0
-28 -47 -53 -76 -104 -110 -133 -143 -166 -176 -213 -217 -251 -288 -316 -357 -385 -422 -456 -460 0
-28 -47 -53 -76 -104 -110 -133 -143 -166 -176 -213 -217 -238 -275 -329 -344 -398 -435 -456 -460 0
-28 -47 -53 -76 -104 -110 -133 -143 -166 -176 -212 -251 -288 -319 -326 -347 -354 -385 -422 -461 0
-28 -47 -53 -76 -104 -110 -133 -143 -166 -176 -212 -251 -278 -285 -316 -357 -388 -395 -422 -461 0
-28 -47 -53 -76 -104 -110 -133 -143 -166 -176 -212 -241 -248 -288 -316 -357 -385 -425 -432 -461 0
-28 -47 -53 -76 -104 -110 -133 -143 -166 -176 -212 -218 -248 -285 -319 -354 -388 -425 -455 -461 0
-28 -47 -53 -76 -104 -110 -133 -143 -166 -176 -212 -218 -241 -278 -326 -347 -395 -432 -455 -461 0
-28 -46 -63 -68 -101 -118 -123 -150 -156 -177 -223 -237 -251 -270 -332 -341 -403 -422 -436 -450 0
-28 -46 -63 -68 -101 -118 -123 -150 -156 -177 -223 -233 -274 -289 -332 -341 -384 -399 -440 -450 0
-28 -46 -63 -68 -101 -118 -123 -150 -156 -177 -223 -233 -270 -313 -328 -345 -360 -403 -440 -450 0
-28 -46 -63 -68 -101 -118 -123 -150 -156 -177 -219 -237 -274 -307 -332 -341 -366 -399 -436 -454 0
-28 -46 -63 -68 -101 -118 -123 -150 -156 -177 -219 -237 -270 -295 -328 -345 -378 -403 -436 -454 0
-28 -46 -63 -68 -101 -118 -123 -150 -156 -177 -219 -233 -257 -274 -328 -345 -399 -416 -440 -454 0
-28 -46 -63 -68 -101 -118 -123 -150 -156 -177 -212 -251 -289 -307 -332 -341 -366 -384 -422 -461 0
-28 -46 -63 -68 -101 -118 -123 -150 -156 -177 -212 -251 -270 -295 -313 -360 -378 -403 -422 -461 0
-28 -46 -63 -68 -101 -118 -123 -150 -156 -177 -212 -233 -257 -289 -313 -360 -384 -416 -440 -461 0
-28 -46 -63 -68 -101 -118 -123 -150 -156 -177 -212 -219 -257 -295 -307 -366 -378 -416 -454 -461 0
-28 -46 -63 -68 -101 -118 -123 -150 -156 -177 -212 -219 -233 -270 -332 -341 -403 -440 -454 -461 0
-28 -46 -63 -68 -101 -118 -123 -150 -156 -177 -211 -257 -295 -313 -328 -345 -360 -378 -416 -462 0
-28 -46 -63 -68 -101 -118 -123 -150 -156 -177 -211 -257 -274 -289 -307 -366 -384 -399 -416 -462 0
-28 -46 -63 -68 -101 -118 -123 -150 -156 -177 -211 -237 -251 -295 -307 -366 -378 -422 -436 -462 0
-28 -46 -63 -68 -101 -118 -123 -150 -156 -177 -211 -223 -251 -289 -313 -360 -384 -422 -450 -462 0
-28 -46 -63 -68 -101 -118 -123 -150 -156 -177 -211 -223 -237 -274 -328 -345 -399 -436 -450 -462 0
-28 -46 -58 -73 -101 -113 -128 -146 -160 -177 -223 -241 -247 -270 -332 -341 -403 -426 -432 -450 0
-28 -46 -58 -73 -101 -113 -128 -146 -160 -177 -223 -233 -279 -284 -332 -341 -389 -394 -440 -450 0
-28 -46 -58 -73 -101 -113 -128 -146 -160 -177 -223 -233 -270 -318 -323 -350 -355 -403 -440 -450 0
-28 -46 -58 -73 -101 -113 -128 -146 -160 -177 -217 -241 -279 -307 -332 -341 -366 -394 -432 -456 0
-28 -46 -58 -73 -101 -113 -128 -146 -160 -177 -217 -241 -270 -295 -323 -350 -378 -403 -432 -456 0
-28 -46 -58 -73 -101 -113 -128 -146 -160 -177 -217 -233 -257 -279 -323 -350 -394 -416 -440 -456 0
-28 -46 -58 -73 -101 -113 -128 -146 -160 -177 -214 -247 -284 -307 -332 -341 -366 -389 -426 -459 0
-28 -46 -58 -73 -101 -113 -128 -146 -160 -177 -214 -247 -270 -295 -318 -355 -378 -403 -426 -459 0
-28 -46 -58 -73 -101 -113 -128 -146 -160 -177 -214 -233 -257 -284 -318 -355 -389 -416 -440 -459 0
-28 -46 -58 -73 -101 -113 -128 -146 -160 -177 -214 -217 -257 -295 -307 -366 -378 -416 -456 -459 0
-28 -46 -58 -73 -101 -113 -128 -146 -160 -177 -214 -217 -233 -270 -332 -341 -403 -440 -456 -459 0
-28 -46 -58 -73 -101 -113 -128 -146 -160 -177 -211 -257 -295 -318 -323 -350 -355 -378 -416 -462 0
-28 -46 -58 -73 -101 -113 -128 -146 -160 -177 -211 -257 -279 -284 -307 -366 -389 -394 -416 -462 0
-28 -46 -58 -73 -101 -113 -128 -146 -160 -177 -211 -241 -247 -295 -307 -366 -378 -426 -432 -462 0
-28 -46 -58 -73 -101 -113 -128 -146 -160 -177 -211 -223 -247 -284 -318 -355 -389 -426 -450 -462 0
-28 -46 -58 -73 -101 -113 -128 -146 -160 -177 -211 -223 -241 -279 -323 -350 -394 -432 -450 -462 0
-28 -46 -54 -79 -101 -109 -134 -142 -166 -177 -219 -241 -247 -274 -328 -345 -399 -426 -432 -454 0
-28 -46 -54 -79 -101 -109 -134 -142 -166 -177 -219 -237 -279 -284 -328 -345 -389 -394 -436 -454 0
-28 -46 -54 -79 -101 -109 -134 -142 -166 -177 -219 -237 -274 -318 -323 -350 -355 -399 -436 -454 0
-28 -46 -54 -79 -101 -109 -134 -142 -166 -177 -217 -241 -279 -313 -328 -345 -360 -394 -432 -456 0
-28 -46 -54 -79 -101 -109 -134 -142 -166 -177 -217 -241 -274 -289 -323 -350 -384 -399 -432 -456 0
-28 -46 -54 -79 -101 -109 -134 -142 -166 -177 -217 -237 -251 -279 -323 -350 -394 -422 -436 -456 0
-28 -46 -54 -79 -101 -109 -134 -142 -166 -177 -214 -247 -284 -313 -328 -345 -360 -389 -426 -459 0
-28 -46 -54 -79 -101 -109 -134 -142 -166 -177 -214 -247 -274 -289 -318 -355 -384 -399 -426 -459 0
-28 -46 -54 -79 -101 -109 -134 -142 -166 -177 -214 -237 -251 -284 -318 -355 -389 -422 -436 -459 0
-28 -46 -54 -79 -101 -109 -134 -142 -166 -177 -214 -217 -251 -289 -313 -360 -384 -422 -456 -459 0
-28 -46 -54 -79 -101 -109 -134 -142 -166 -177 -214 -217 -237 -274 -328 -345 -399 -436 -456 -459 0
-28 -46 -54 -79 -101 -109 -134 -142 -166 -177 -212 -251 -289 -318 -323 -350 -355 -384 -422 -461 0
-28 -46 -54 -79 -101 -109 -134 -142 -166 -177 -212 -251 -279 -284 -313 -360 -389 -394 -422 -461 0
-28 -46 -54 -79 -101 -109 -134 -142 -166 -177 -212 -241 -247 -289 -313 -360 -384 -426 -432 -461 0
-28 -46 -54 -79 -101 -109 -134 -142 -166 -177 -212 -219 -247 -284 -318 -355 -389 -426 -454 -461 0
-28 -46 -54 -79 -101 -109 -134 -142 -166 -177 -212 -219 -241 -279 -323 -350 -394 -432 -454 -461 0
-28 -45 -62 -67 -102 -119 -124 -150 -156 -177 -223 -237 -251 -271 -333 -340 -402 -422 -436 -450 0
-28 -45 -62 -67 -102 -119 -124 -150 -156 -177 -223 -233 -275 -290 -333 -340 -383 -398 -440 -450 0
-28 -45 -62 -67 -102 -119 -124 -150 -156 -177 -223 -233 -271 -314 -329 -344 -359 -402 -440 -450 0
-28 -45 -62 -67 -102 -119 -124 -150 -156 -177 -219 -237 -275 -308 -333 -340 -365 -398 -436 -454 0
-28 -45 -62 -67 -102 -119 -124 -150 -156 -177 -219 -237 -271 -296 -329 -344 -377 -402 -436 -454 0
-28 -45 -62 -67 -102 -119 -124 -150 -156 -177 -219 -233 -257 -275 -329 -344 -398 -416 -440 -454 0
-28 -45 -62 -67 -102 -119 -124 -150 -156 -177 -212 -251 -290 -308 -333 -340 -365 -383 -422 -461 0
-28 -45 -62 -67 -102 -119 -124 -150 -156 -177 -212 -251 -271 -296 -314 -359 -377 -402 -422 -461 0
-28 -45 -62 -67 -102 -119 -124 -150 -156 -177 -212 -233 -257 -290 -314 -359 -383 -416 -440 -461 0
-28 -45 -62 -67 -102 -119 -124 -150 -156 -177 -212 -219 -257 -296 -308 -365 -377 -416 -454 -461 0
-28 -45 -62 -67 -102 -119 -124 -150 -156 -177 -212 -219 -233 -271 -333 -340 -402 -440 -454 -461 0
-28 -45 -62 -67 -102 -119 -124 -150 -156 -177 -211 -257 -296 -314 -329 -344 -359 -377 -416 -462 0
-28 -45 -62 -67 -102 -119 -124 -150 -156 -177 -211 -257 -275 -290 -308 -365 -383 -398 -416 -462 0
-28 -45 -62 -67 -102 -119 -124 -150 -156 -177 -211 -237 -251 -296 -308 -365 -377 -422 -436 -462 0
-28 -45 -62 -67 -102 -119 -124 -150 -156 -177 -211 -223 -251 -290 -314 -359 -383 -422 -450 -462 0
-28 -45 -62 -67 -102 -119 -124 -150 -156 -177 -211 -223 -237 -275 -329 -344 -398 -436 -450 -462 0
-28 -45 -57 -72 -102 -114 -129 -146 -160 -177 -223 -241 -247 -271 -333 -340 -402 -426 -432 -450 0
-28 -45 -57 -72 -102 -114 -129 -146 -160 -177 -223 -233 -280 -285 -333 -340 -388 -393 -440 -450 0
-28 -45 -57 -72 -102 -114 -129 -146 -160 -177 -223 -233 -271 -319 -324 -349 -354 -402 -440 -450 0
-28 -45 -57 -72 -102 -114 -129 -146 -160 -177 -217 -241 -280 -308 -333 -340 -365 -393 -432 -456 0
-28 -45 -57 -72 -102 -114 -129 -146 -160 -177 -217 -241 -271 -296 -324 -349 -377 -402 -432 -456 0
-28 -45 -57 -72 -102 -114 -129 -146 -160 -177 -217 -233 -257 -280 -324 -349 -393 -416 -440 -456 0
-28 -45 -57 -72 -102 -114 -129 -146 -160 -177 -214 -247 -285 -308 -333 -340 -365 -388 -426 -459 0
-28 -45 -57 -72 -102 -114 -129 -146 -160 -177 -214 -247 -271 -296 -319 -354 -377 -402 -426 -459 0
-28 -45 -57 -72 -102 -114 -129 -146 -160 -177 -214 -233 -257 -285 -319 -354 -388 -416 -440 -459 0
-28 -45 -57 -72 -102 -114 -129 -146 -160 -177 -214 -217 -257 -296 -308 -365 -377 -416 -456 -459 0
-28 -45 -57 -72 -102 -114 -129 -146 -160 -177 -214 -217 -233 -271 -333 -340 -402 -440 -456 -459 0
-28 -45 -57 -72 -102 -114 -129 -146 -160 -177 -211 -257 -296 -319 -324 -349 -354 -377 -416 -462 0
-28 -45 -57 -72 -102 -114 -129 -146 -160 -177 -211 -257 -280 -285 -308 -365 -388 -393 -416 -462 0
-28 -45 -57 -72 -102 -114 -129 -146 -160 -177 -211 -241 -247 -296 -308 -365 -377 -426 -432 -462 0
-28 -45 -57 -72 -102 -114 -129 -146 -160 -177 -211 -223 -247 -285 -319 -354 -388 -426 -450 -462 0
-28 -45 -57 -72 -102 -114 -129 -146 -160 -177 -211 -223 -241 -280 -324 -349 -393 -432 -450 -462 0
-28 -45 -53 -78 -102 -110 -135 -142 -166 -177 -219 -241 -247 -275 -329 -344 -398 -426 -432 -454 0
-28 -45 -53 -78 -102 -110 -135 -142 -166 -177 -219 -237 -280 -285 -329 -344 -388 -393 -436 -454 0
-28 -45 -53 -78 -102 -110 -135 -142 -166 -177 -219 -237 -275 -319 -324 -349 -354 -398 -436 -454 0
-28 -45 -53 -78 -102 -110 -135 -142 -166 -177 -217 -241 -280 -314 -329 -344 -359 -393 -432 -456 0
-28 -45 -53 -78 -102 -110 -135 -142 -166 -177 -217 -241 -275 -290 -324 -349 -383 -398 -432 -456 0
-28 -45 -53 -78 -102 -110 -135 -142 -166 -177 -217 -237 -251 -280 -324 -349 -393 -422 -436 -456 0
-28 -45 -53 -78 -102 -110 -135 -142 -166 -177 -214 -247 -285 -314 -329 -344 -359 -388 -426 -459 0
-28 -45 -53 -78 -102 -110 -135 -142 -166 -177 -214 -247 -275 -290 -319 -354 -383 -398 -426 -459 0
-28 -45 -53 -78 -102 -110 -135 -142 -166 -177 -214 -237 -251 -285 -319 -354 -388 -422 -436 -459 0
-28 -45 -53 -78 -102 -110 -135 -142 -166 -177 -214 -217 -251 -290 -314 -359 -383 -422 -456 -459 0
-28 -45 -53 -78 -102 -110 -135 -142 -166 -177 -214 -217 -237 -275 -329 -344 -398 -436 -456 -459 0
-28 -45 -53 -78 -102 -110 -135 -142 -166 -177 -212 -251 -290 -319 -324 -349 -354 -383 -422 -461 0
-28 -45 -53 -78 -102 -110 -135 -142 -166 -177 -212 -251 -280 -285 -314 -359 -388 -393 -422 -461 0
-28 -45 -53 -78 -102 -110 -135 -142 -166 -177 -212 -241 -247 -290 -314 -359 -383 -426 -432 -461 0
-28 -45 -53 -78 -102 -110 -135 -142 -166 -177 -212 -219 -247 -285 -319 -354 -388 -426 -454 -461 0
-28 -45 -53 -78 -102 -110 -135 -142 -166 -177 -212 -219 -241 -280 -324 -349 -393 -432 -454 -461 0
-28 -43 -63 -71 -98 -118 -126 -147 -156 -180 -226 -237 -248 -270 -332 -341 -403 -425 -436 -447 0
-28 -43 -63 -71 -98 -118 -126 -147 -156 -180 -226 -232 -277 -289 -332 -341 -384 -396 -441 -447 0
-28 -43 -63 -71 -98 -118 -126 -147 -156 -180 -226 -232 -270 -313 -325 -348 -360 -403 -441 -447 0
-28 -43 -63 -71 -98 -118 -126 -147 -156 -180 -219 -237 -277 -304 -332 -341 -369 -396 -436 -454 0
-28 -43 -63 -71 -98 -118 -126 -147 -156 -180 -219 -237 -270 -298 -325 -348 -375 -403 -436 -454 0
-28 -43 -63 -71 -98 -118 -126 -147 -156 -180 -219 -232 -257 -277 -325 -348 -396 -416 -441 -454 0
-28 -43 -63 -71 -98 -118 -126 -147 -156 -180 -213 -248 -289 -304 -332 -341 -369 -384 -425 -460 0
-28 -43 -63 -71 -98 -118 -126 -147 -156 -180 -213 -248 -270 -298 -313 -360 -375 -403 -425 -460 0
-28 -43 -63 -71 -98 -118 -126 -147 -156 -180 -213 -232 -257 -289 -313 -360 -384 -416 -441 -460 0
-28 -43 -63 -71 -98 -118 -126 -147 -156 -180 -213 -219 -257 -298 -304 -369 -375 -416 -454 -460 0
-28 -43 -63 -71 -98 -118 -126 -147 -156 -180 -213 -219 -232 -270 -332 -341 -403 -441 -454 -460 0
-28 -43 -63 -71 -98 -118 -126 -147 -156 -180 -211 -257 -298 -313 -325 -348 -360 -375 -416 -462 0
-28 -43 -63 -71 -98 -118 -126 -147 -156 -180 -211 -257 -277 -289 -304 -369 -384 -396 -416 -462 0
-28 -43 -63 -71 -98 -118 -126 -147 -156 -180 -211 -237 -248 -298 -304 -369 -375 -425 -436 -462 0
-28 -43 -63 -71 -98 -118 -126 -147 -156 -180 -211 -226 -248 -289 -313 -360 -384 -425 -447 -462 0
-28 -43 -63 -71 -98 -118 -126 -147 -156 -180 -211 -226 -237 -277 -325 -348 -396 -436 -447 -462 0
-28 -43 -61 -73 -98 -116 -128 -146 -157 -180 -226 -238 -247 -270 -332 -341 -403 -426 -435 -447 0
-28 -43 -61 -73 -98 -116 -128 -146 -157 -180 -226 -232 -279 -287 -332 -341 -386 -394 -441 -447 0
-28 -43 -61 -73 -98 -116 -128 -146 -157 -180 -226 -232 -270 -315 -323 -350 -358 -403 -441 -447 0
-28 -43 -61 -73 -98 -116 -128 -146 -157 -180 -218 -238 -279 -304 -332 -341 -369 -394 -435 -455 0
-28 -43 -61 -73 -98 -116 -128 -146 -157 -180 -218 -238 -270 -298 -323 -350 -375 -403 -435 -455 0
-28 -43 -61 -73 -98 -116 -128 -146 -157 -180 -218 -232 -257 -279 -323 -350 -394 -416 -441 -455 0
-28 -43 -61 -73 -98 -116 -128 -146 -157 -180 -214 -247 -287 -304 -332 -341 -369 -386 -426 -459 0
-28 -43 -61 -73 -98 -116 -128 -146 -157 -180 -214 -247 -270 -298 -315 -358 -375 -403 -426 -459 0
-28 -43 -61 -73 -98 -116 -128 -146 -157 -180 -214 -232 -257 -287 -315 -358 -386 -416 -441 -459 0
-28 -43 -61 -73 -98 -116 -128 -146 -157 -180 -214 -218 -257 -298 -304 -369 -375 -416 -455 -459 0
-28 -43 -61 -73 -98 -116 -128 -146 -157 -180 -214 -218 -232 -270 -332 -341 -403 -441 -455 -459 0
-28 -43 -61 -73 -98 -116 -128 -146 -157 -180 -211 -257 -298 -315 -323 -350 -358 -375 -416 -462 0
-28 -43 -61 -73 -98 -116 -128 -146 -157 -180 -211 -257 -279 -287 -304 -369 -386 -394 -416 -462 0
-28 -43 -61 -73 -98 -116 -128 -146 -157 -180 -211 -238 -247 -298 -304 -369 -375 -426 -435 -462 0
-28 -43 -61 -73 -98 -116 -128 -146 -157 -180 -211 -226 -247 -287 -315 -358 -386 -426 -447 -462 0
-28 -43 -61 -73 -98 -116 -128 -146 -157 -180 -211 -226 -238 -279 -323 -350 -394 -435 -447 -462 0
-28 -43 -54 -82 -98 -109 -137 -141 -166 -180 -219 -238 -247 -277 -325 -348 -396 -426 -435 -454 0
-28 -43 -54 -82 -98 -109 -137 -141 -166 -180 -219 -237 -279 -287 -325 -348 -386 -394 -436 -454 0
-28 -43 -54 -82 -98 -109 -137 -141 -166 -180 -219 -237 -277 -315 -323 -350 -358 -396 -436 -454 0
-28 -43 -54 -82 -98 -109 -137 -141 -166 -180 -218 -238 -279 -313 -325 -348 -360 -394 -435 -455 0
-28 -43 -54 -82 -98 -109 -137 -141 -166 -180 -218 -238 -277 -289 -323 -350 -384 -396 -435 -455 0
-28 -43 -54 -82 -98 -109 -137 -141 -166 -180 -218 -237 -248 -279 -323 -350 -394 -425 -436 -455 0
-28 -43 -54 -82 -98 -109 -137 -141 -166 -180 -214 -247 -287 -313 -325 -348 -360 -386 -426 -459 0
-28 -43 -54 -82 -98 -109 -137 -141 -166 -180 -214 -247 -277 -289 -315 -358 -384 -396 -426 -459 0
-28 -43 -54 -82 -98 -109 -137 -141 -166 -180 -214 -237 -248 -287 -315 -358 -386 -425 -436 -459 0
-28 -43 -54 -82 -98 -109 -137 -141 -166 -180 -214 -218 -248 -289 -313 -360 -384 -425 -455 -459 0
-28 -43 -54 -82 -98 -109 -137 -141 -166 -180 -214 -218 -237 -277 -325 -348 -396 -436 -455 -459 0
-28 -43 -54 -82 -98 -109 -137 -141 -166 -180 -213 -248 -289 -315 -323 -350 -358 -384 -425 -460 0
-28 -43 -54 -82 -98 -109 -137 -141 -166 -180 -213 -248 -279 -287 -313 -360 -386 -394 -425 -460 0
-28 -43 -54 -82 -98 -109 -137 -141 -166 -180 -213 -238 -247 -289 -313 -360 -384 -426 -435 -460 0
-28 -43 -54 -82 -98 -109 -137 -141 -166 -180 -213 -219 -247 -287 -315 -358 -386 -426 -454 -460 0
-28 -43 -54 -82 -98 -109 -137 -141 -166 -180 -213 -219 -238 -279 -323 -350 -394 -435 -454 -460 0
-28 -42 -62 -70 -99 -119 -127 -147 -156 -180 -226 -237 -248 -271 -333 -340 -402 -425 -436 -447 0
-28 -42 -62 -70 -99 -119 -127 -147 -156 -180 -226 -232 -278 -290 -333 -340 -383 -395 -441 -447 0
-28 -42 -62 -70 -99 -119 -127 -147 -156 -180 -226 -232 -271 -314 -326 -347 -359 -402 -441 -447 0
-28 -42 -62 -70 -99 -119 -127 -147 -156 -180 -219 -237 -278 -305 -333 -340 -368 -395 -436 -454 0
-28 -42 -62 -70 -99 -119 -127 -147 -156 -180 -219 -237 -271 -299 -326 -347 -374 -402 -436 -454 0
-28 -42 -62 -70 -99 -119 -127 -147 -156 -180 -219 -232 -257 -278 -326 -347 -395 -416 -441 -454 0
-28 -42 -62 -70 -99 -119 -127 -147 -156 -180 -213 -248 -290 -305 -333 -340 -368 -383 -425 -460 0
-28 -42 -62 -70 -99 -119 -127 -147 -156 -180 -213 -248 -271 -299 -314 -359 -374 -402 -425 -460 0
-28 -42 -62 -70 -99 -119 -127 -147 -156 -180 -213 -232 -257 -290 -314 -359 -383 -416 -441 -460 0
-28 -42 -62 -70 -99 -119 -127 -147 -156 -180 -213 -219 -257 -299 -305 -368 -374 -416 -454 -460 0
-28 -42 -62 -70 -99 -119 -127 -147 -156 -180 -213 -219 -232 -271 -333 -340 -402 -441 -454 -460 0
-28 -42 -62 -70 -99 -119 -127 -147 -156 -180 -211 -257 -299 -314 -326 -347 -359 -374 -416 -462 0
-28 -42 -62 -70 -99 -119 -127 -147 -156 -180 -211 -257 -278 -290 -305 -368 -383 -395 -416 -462 0
-28 -42 -62 -70 -99 -119 -127 -147 -156 -180 -211 -237 -248 -299 -305 -368 -374 -425 -436 -462 0
-28 -42 -62 -70 -99 -119 -127 -147 -156 -180 -211 -226 -248 -290 -314 -359 -383 -425 -447 -462 0
-28 -42 -62 -70 -99 -119 -127 -147 -156 -180 -211 -226 -237 -278 -326 -347 -395 -436 -447 -462 0
-28 -42 -60 -72 -99 -117 -129 -146 -157 -180 -226 -238 -247 -271 -333 -340 -402 -426 -435 -447 0
-28 -42 -60 -72 -99 -117 -129 -146 -157 -180 -226 -232 -280 -288 -333 -340 -385 -393 -441 -447 0
-28 -42 -60 -72 -99 -117 -129 -146 -157 -180 -226 -232 -271 -316 -324 -349 -357 -402 -441 -447 0
-28 -42 -60 -72 -99 -117 -129 -146 -157 -180 -218 -238 -280 -305 -333 -340 -368 -393 -435 -455 0
-28 -42 -60 -72 -99 -117 -129 -146 -157 -180 -218 -238 -271 -299 -324 -349 -374 -402 -435 -455 0
-28 -42 -60 -72 -99 -117 -129 -146 -157 -180 -218 -232 -257 -280 -324 -349 -393 -416 -441 -455 0
-28 -42 -60 -72 -99 -117 -129 -146 -157 -180 -214 -247 -288 -305 -333 -340 -368 -385 -426 -459 0
-28 -42 -60 -72 -99 -117 -129 -146 -157 -180 -214 -247 -271 -299 -316 -357 -374 -402 -426 -459 0
-28 -42 -60 -72 -99 -117 -129 -146 -157 -180 -214 -232 -257 -288 -316 -357 -385 -416 -441 -459 0
-28 -42 -60 -72 -99 -117 -129 -146 -157 -180 -214 -218 -257 -299 -305 -368 -374 -416 -455 -459 0
-28 -42 -60 -72 -99 -117 -129 -146 -157 -180 -214 -218 -232 -271 -333 -340 -402 -441 -455 -459 0
-28 -42 -60 -72 -99 -117 -129 -146 -157 -180 -211 -257 -299 -316 -324 -349 -357 -374 -416 -462 0
-28 -42 -60 -72 -99 -117 -129 -146 -157 -180 -211 -257 -280 -288 -305 -368 -385 -393 -416 -462 0
-28 -42 -60 -72 -99 -117 -129 -146 -157 -180 -211 -238 -247 -299 -305 -368 -374 -426 -435 -462 0
-28 -42 -60 -72 -99 -117 -129 -146 -157 -180 -211 -226 -247 -288 -316 -357 -385 -426 -447 -462 0
-28 -42 -60 -72 -99 -117 -129 -146 -157 -180 -211 -226 -238 -280 -324 -349 -393 -435 -447 -462 0
-28 -42 -53 -81 -99 -110 -138 -141 -166 -180 -219 -238 -247 -278 -326 -347 -395 -426 -435 -454 0
-28 -42 -53 -81 -99 -110 -138 -141 -166 -180 -219 -237 -280 -288 -326 -347 -385 -393 -436 -454 0
-28 -42 -53 -81 -99 -110 -138 -141 -166 -180 -219 -237 -278 -316 -324 -349 -357 -395 -436 -454 0
-28 -42 -53 -81 -99 -110 -138 -141 -166 -180 -218 -238 -280 -314 -326 -347 -359 -393 -435 -455 0
-28 -42 -53 -81 -99 -110 -138 -141 -166 -180 -218 -238 -278 -290 -324 -349 -383 -395 -435 -455 0
-28 -42 -53 -81 -99 -110 -138 -141 -166 -180 -218 -237 -248 -280 -324 -349 -393 -425 -436 -455 0
-28 -42 -53 -81 -99 -110 -138 -141 -166 -180 -214 -247 -288 -314 -326 -347 -359 -385 -426 -459 0
-28 -42 -53 -81 -99 -110 -138 -141 -166 -180 -214 -247 -278 -290 -316 -357 -383 -395 -426 -459 0
-28 -42 -53 -81 -99 -110 -138 -141 -166 -180 -214 -237 -248 -288 -316 -357 -385 -425 -436 -459 0
-28 -42 -53 -81 -99 -110 -138 -141 -166 -180 -214 -218 -248 -290 -314 -359 -383 -425 -455 -459 0
-28 -42 -53 -81 -99 -110 -138 -141 -166 -180 -214 -218 -237 -278 -326 -347 -395 -436 -455 -459 0
-28 -42 -53 -81 -99 -110 -138 -141 -166 -180 -213 -248 -290 -316 -324 -349 -357 -383 -425 -460 0
-28 -42 -53 -81 -99 -110 -138 -141 -166 -180 -213 -248 -280 -288 -314 -359 -385 -393 -425 -460 0
-28 -42 -53 -81 -99 -110 -138 -141 -166 -180 -213 -238 -247 -290 -314 -359 -383 -426 -435 -460 0
-28 -42 -53 -81 -99 -110 -138 -141 -166 -180 -213 -219 -247 -288 -316 -357 -385 -426 -454 -460 0
-28 -42 -53 -81 -99 -110 -138 -141 -166 -180 -213 -219 -238 -280 -324 -349 -393 -435 -454 -460 0
-28 -39 -63 -77 -94 -118 -132 -143 -156 -186 -226 -233 -248 -274 -328 -345 -399 -425 -440 -447 0
-28 -39 -63 -77 -94 -118 -132 -143 -156 -186 -226 -232 -277 -295 -328 -345 -378 -396 -441 -447 0
-28 -39 -63 -77 -94 -118 -132 -143 -156 -186 -226 -232 -274 -307 -325 -348 -366 -399 -441 -447 0
-28 -39 -63 -77 -94 -118 -132 -143 -156 -186 -223 -233 -277 -304 -328 -345 -369 -396 -440 -450 0
-28 -39 -63 -77 -94 -118 -132 -143 -156 -186 -223 -233 -274 -298 -325 -348 -375 -399 -440 -450 0
-28 -39 -63 -77 -94 -118 -132 -143 -156 -186 -223 -232 -251 -277 -325 -348 -396 -422 -441 -450 0
-28 -39 -63 -77 -94 -118 -132 -143 -156 -186 -213 -248 -295 -304 -328 -345 -369 -378 -425 -460 0
-28 -39 -63 -77 -94 -118 -132 -143 -156 -186 -213 -248 -274 -298 -307 -366 -375 -399 -425 -460 0
-28 -39 -63 -77 -94 -118 -132 -143 -156 -186 -213 -232 -251 -295 -307 -366 -378 -422 -441 -460 0
-28 -39 -63 -77 -94 -118 -132 -143 -156 -186 -213 -223 -251 -298 -304 -369 -375 -422 -450 -460 0
-28 -39 -63 -77 -94 -118 -132 -143 -156 -186 -213 -223 -232 -274 -328 -345 -399 -441 -450 -460 0
-28 -39 -63 -77 -94 -118 -132 -143 -156 -186 -212 -251 -298 -307 -325 -348 -366 -375 -422 -461 0
-28 -39 -63 -77 -94 -118 -132 -143 -156 -186 -212 -251 -277 -295 -304 -369 -378 -396 -422 -461 0
-28 -39 -63 -77 -94 -118 -132 -143 -156 -186 -212 -233 -248 -298 -304 -369 -375 -425 -440 -461 0
-28 -39 -63 -77 -94 -118 -132 -143 -156 -186 -212 -226 -248 -295 -307 -366 -378 -425 -447 -461 0
-28 -39 -63 -77 -94 -118 -132 -143 -156 -186 -212 -226 -233 -277 -325 -348 -396 -440 -447 -461 0
-28 -39 -61 -79 -94 -116 -134 -142 -157 -186 -226 -234 -247 -274 -328 -345 -399 -426 -439 -447 0
-28 -39 -61 -79 -94 -116 -134 -142 -157 -186 -226 -232 -279 -293 -328 -345 -380 -394 -441 -447 0
-28 -39 -61 -79 -94 -116 -134 -142 -157 -186 -226 -232 -274 -309 -323 -350 -364 -399 -441 -447 0
-28 -39 -61 -79 -94 -116 -134 -142 -157 -186 -222 -234 -279 -304 -328 -345 -369 -394 -439 -451 0
-28 -39 -61 -79 -94 -116 -134 -142 -157 -186 -222 -234 -274 -298 -323 -350 -375 -399 -439 -451 0
-28 -39 -61 -79 -94 -116 -134 -142 -157 -186 -222 -232 -251 -279 -323 -350 -394 -422 -441 -451 0
-28 -39 -61 -79 -94 -116 -134 -142 -157 -186 -214 -247 -293 -304 -328 -345 -369 -380 -426 -459 0
-28 -39 -61 -79 -94 -116 -134 -142 -157 -186 -214 -247 -274 -298 -309 -364 -375 -399 -426 -459 0
-28 -39 -61 -79 -94 -116 -134 -142 -157 -186 -214 -232 -251 -293 -309 -364 -380 -422 -441 -459 0
-28 -39 -61 -79 -94 -116 -134 -142 -157 -186 -214 -222 -251 -298 -304 -369 -375 -422 -451 -459 0
-28 -39 -61 -79 -94 -116 -134 -142 -157 -186 -214 -222 -232 -274 -328 -345 -399 -441 -451 -459 0
-28 -39 -61 -79 -94 -116 -134 -142 -157 -186 -212 -251 -298 -309 -323 -350 -364 -375 -422 -461 0
-28 -39 -61 -79 -94 -116 -134 -142 -157 -186 -212 -251 -279 -293 -304 -369 -380 -394 -422 -461 0
-28 -39 -61 -79 -94 -116 -134 -142 -157 -186 -212 -234 -247 -298 -304 -369 -375 -426 -439 -461 0
-28 -39 -61 -79 -94 -116 -134 -142 -157 -186 -212 -226 -247 -293 -309 -364 -380 -426 -447 -461 0
-28 -39 -61 -79 -94 -116 -134 -142 -157 -186 -212 -226 -234 -279 -323 -350 -394 -439 -447 -461 0
-28 -39 -58 -82 -94 -113 -137 -141 -160 -186 -223 -234 -247 -277 -325 -348 -396 -426 -439 -450 0
-28 -39 -58 -82 -94 -113 -137 -141 -160 -186 -223 -233 -279 -293 -325 -348 -380 -394 -440 -450 0
-28 -39 -58 -82 -94 -113 -137 -141 -160 -186 -223 -233 -277 -309 -323 -350 -364 -396 -440 -450 0
-28 -39 -58 -82 -94 -113 -137 -141 -160 -186 -222 -234 -279 -307 -325 -348 -366 -394 -439 -451 0
-28 -39 -58 -82 -94 -113 -137 -141 -160 -186 -222 -234 -277 -295 -323 -350 -378 -396 -439 -451 0
-28 -39 -58 -82 -94 -113 -137 -141 -160 -186 -222 -233 -248 -279 -323 -350 -394 -425 -440 -451 0
-28 -39 -58 -82 -94 -113 -137 -141 -160 -186 -214 -247 -293 -307 -325 -348 -366 -380 -426 -459 0
-28 -39 -58 -82 -94 -113 -137 -141 -160 -186 -214 -247 -277 -295 -309 -364 -378 -396 -426 -459 0
-28 -39 -58 -82 -94 -113 -137 -141 -160 -186 -214 -233 -248 -293 -309 -364 -380 -425 -440 -459 0
-28 -39 -58 -82 -94 -113 -137 -141 -160 -186 -214 -222 -248 -295 -307 -366 -378 -425 -451 -459 0
-28 -39 -58 -82 -94 -113 -137 -141 -160 -186 -214 -222 -233 -277 -325 -348 -396 -440 -451 -459 0
-28 -39 -58 -82 -94 -113 -137 -141 -160 -186 -213 -248 -295 -309 -323 -350 -364 -378 -425 -460 0
-28 -39 -58 -82 -94 -113 -137 -141 -160 -186 -213 -248 -279 -293 -307 -366 -380 -394 -425 -460 0
-28 -39 -58 -82 -94 -113 -137 -141 -160 -186 -213 -234 -247 -295 -307 -366 -378 -426 -439 -460 0
-28 -39 -58 -82 -94 -113 -137 -141 -160 -186 -213 -223 -247 -293 -309 -364 -380 -426 -450 -460 0
-28 -39 -58 -82 -94 -113 -137 -141 -160 -186 -213 -223 -234 -279 -323 -350 -394 -439 -450 -460 0
-28 -38 -62 -76 -95 -119 -133 -143 -156 -186 -226 -233 -248 -275 -329 -344 -398 -425 -440 -447 0
-28 -38 -62 -76 -95 -119 -133 -143 -156 -186 -226 -232 -278 -296 -329 -344 -377 -395 -441 -447 0
-28 -38 -62 -76 -95 -119 -133 -143 -156 -186 -226 -232 -275 -308 -326 -347 -365 -398 -441 -447 0
-28 -38 -62 -76 -95 -119 -133 -143 -156 -186 -223 -233 -278 -305 -329 -344 -368 -395 -440 -450 0
-28 -38 -62 -76 -95 -119 -133 -143 -156 -186 -223 -233 -275 -299 -326 -347 -374 -398 -440 -450 0
-28 -38 -62 -76 -95 -119 -133 -143 -156 -186 -223 -232 -251 -278 -326 -347 -395 -422 -441 -450 0
-28 -38 -62 -76 -95 -119 -133 -143 -156 -186 -213 -248 -296 -305 -329 -344 -368 -377 -425 -460 0
-28 -38 -62 -76 -95 -119 -133 -143 -156 -186 -213 -248 -275 -299 -308 -365 -374 -398 -425 -460 0
-28 -38 -62 -76 -95 -119 -133 -143 -156 -186 -213 -232 -251 -296 -308 -365 -377 -422 -441 -460 0
-28 -38 -62 -76 -95 -119 -133 -143 -156 -186 -213 -223 -251 -299 -305 -368 -374 -422 -450 -460 0
-28 -38 -62 -76 -95 -119 -133 -143 -156 -186 -213 -223 -232 -275 -329 -344 -398 -441 -450 -460 0
-28 -38 -62 -76 -95 -119 -133 -143 -156 -186 -212 -251 -299 -308 -326 -347 -365 -374 -422 -461 0
-28 -38 -62 -76 -95 -119 -133 -143 -156 -186 -212 -251 -278 -296 -305 -368 -377 -395 -422 -461 0
-28 -38 -62 -76 -95 -119 -133 -143 -156 -186 -212 -233 -248 -299 -305 -368 -374 -425 -440 -461 0
-28 -38 -62 -76 -95 -119 -133 -143 -156 -186 -212 -226 -248 -296 -308 -365 -377 -425 -447 -461 0
-28 -38 -62 -76 -95 -119 -133 -143 -156 -186 -212 -226 -233 -278 -326 -347 -395 -440 -447 -461 0
-28 -38 -60 -78 -95 -117 -135 -142 -157 -186 -226 -234 -247 -275 -329 -344 -398 -426 -439 -447 0
-28 -38 -60 -78 -95 -117 -135 -142 -157 -186 -226 -232 -280 -294 -329 -344 -379 -393 -441 -447 0
-28 -38 -60 -78 -95 -117 -135 -142 -157 -186 -226 -232 -275 -310 -324 -349 -363 -398 -441 -447 0
-28 -38 -60 -78 -95 -117 -135 -142 -157 -186 -222 -234 -280 -305 -329 -344 -368 -393 -439 -451 0
-28 -38 -60 -78 -95 -117 -135 -142 -157 -186 -222 -234 -275 -299 -324 -349 -374 -398 -439 -451 0
-28 -38 -60 -78 -95 -117 -135 -142 -157 -186 -222 -232 -251 -280 -324 -349 -393 -422 -441 -451 0
-28 -38 -60 -78 -95 -117 -135 -142 -157 -186 -214 -247 -294 -305 -329 -344 -368 -379 -426 -459 0
-28 -38 -60 -78 -95 -117 -135 -142 -157 -186 -214 -247 -275 -299 -310 -363 -374 -398 -426 -459 0
-28 -38 -60 -78 -95 -117 -135 -142 -157 -186 -214 -232 -251 -294 -310 -363 -379 -422 -441 -459 0
-28 -38 -60 -78 -95 -117 -135 -142 -157 -186 -214 -222 -251 -299 -305 -368 -374 -422 -451 -459 0
-28 -38 -60 -78 -95 -117 -135 -142 -157 -186 -214 -222 -232 -275 -329 -344 -398 -441 -451 -459 0
-28 -38 -60 -78 -95 -117 -135 -142 -157 -186 -212 -251 -299 -310 -324 -349 -363 -374 -422 -461 0
-28 -38 -60 -78 -95 -117 -135 -142 -157 -186 -212 -251 -280 -294 -305 -368 -379 -393 -422 -461 0
-28 -38 -60 -78 -95 -117 -135 -142 -157 -186 -212 -234 -247 -299 -305 -368 -374 -426 -439 -461 0
-28 -38 -60 -78 -95 -117 -135 -142 -157 -186 -212 -226 -247 -294 -310 -363 -379 -426 -447 -461 0
-28 -38 -60 -78 -95 -117 -135 -142 -157 -186 -212 -226 -234 -280 -324 -349 -393 -439 -447 -461 0
-28 -38 -57 -81 -95 -114 -138 -141 -160 -186 -223 -234 -247 -278 -326 -347 -395 -426 -439 -450 0
-28 -38 -57 -81 -95 -114 -138 -141 -160 -186 -223 -233 -280 -294 -326 -347 -379 -393 -440 -450 0
-28 -38 -57 -81 -95 -114 -138 -141 -160 -186 -223 -233 -278 -310 -324 -349 -363 -395 -440 -450 0
-28 -38 -57 -81 -95 -114 -138 -141 -160 -186 -222 -234 -280 -308 -326 -347 -365 -393 -439 -451 0
-28 -38 -57 -81 -95 -114 -138 -141 -160 -186 -222 -234 -278 -296 -324 -349 -377 -395 -439 -451 0
-28 -38 -57 -81 -95 -114 -138 -141 -160 -186 -222 -233 -248 -280 -324 -349 -393 -425 -440 -451 0
-28 -38 -57 -81 -95 -114 -138 -141 -160 -186 -214 -247 -294 -308 -326 -347 -365 -379 -426 -459 0
-28 -38 -57 -81 -95 -114 -138 -141 -160 -186 -214 -247 -278 -296 -310 -363 -377 -395 -426 -459 0
-28 -38 -57 -81 -95 -114 -138 -141 -160 -186 -214 -233 -248 -294 -310 -363 -379 -425 -440 -459 0
-28 -38 -57 -81 -95 -114 -138 -141 -160 -186 -214 -222 -248 -296 -308 -365 -377 -425 -451 -459 0
-28 -38 -57 -81 -95 -114 -138 -141 -160 -186 -214 -222 -233 -278 -326 -347 -395 -440 -451 -459 0
-28 -38 -57 -81 -95 -114 -138 -141 -160 -186 -213 -248 -296 -310 -324 -349 -363 -377 -425 -460 0
-28 -38 -57 -81 -95 -114 -138 -141 -160 -186 -213 -248 -280 -294 -308 -365 -379 -393 -425 -460 0
-28 -38 -57 -81 -95 -114 -138 -141 -160 -186 -213 -234 -247 -296 -308 -365 -377 -426 -439 -460 0
-28 -38 -57 -81 -95 -114 -138 -141 -160 -186 -213 -223 -247 -294 -310 -363 -379 -426 -450 -460 0
-28 -38 -57 -81 -95 -114 -138 -141 -160 -186 -213 -223 -234 -280 -324 -349 -393 -439 -450 -460 0
-28 -34 -73 -77 -89 -128 -132 -143 -146 -196 -226 -233 -238 -284 -318 -355 -389 -435 -440 -447 0
-28 -34 -73 -77 -89 -128 -132 -143 -146 -196 -226 -232 -287 -295 -318 -355 -378 -386 -441 -447 0
-28 -34 -73 -77 -89 -128 -132 -143 -146 -196 -226 -232 -284 -307 -315 -358 -366 -389 -441 -447 0
-28 -34 -73 -77 -89 -128 -132 -143 -146 -196 -223 -233 -287 -304 -318 -355 -369 -386 -440 -450 0
-28 -34 -73 -77 -89 -128 -132 -143 -146 -196 -223 -233 -284 -298 -315 -358 -375 -389 -440 -450 0
-28 -34 -73 -77 -89 -128 -132 -143 -146 -196 -223 -232 -241 -287 -315 -358 -386 -432 -441 -450 0
-28 -34 -73 -77 -89 -128 -132 -143 -146 -196 -218 -238 -295 -304 -318 -355 -369 -378 -435 -455 0
-28 -34 -73 -77 -89 -128 -132 -143 -146 -196 -218 -238 -284 -298 -307 -366 -375 -389 -435 -455 0
-28 -34 -73 -77 -89 -128 -132 -143 -146 -196 -218 -232 -241 -295 -307 -366 -378 -432 -441 -455 0
-28 -34 -73 -77 -89 -128 -132 -143 -146 -196 -218 -223 -241 -298 -304 -369 -375 -432 -450 -455 0
-28 -34 -73 -77 -89 -128 -132 -143 -146 -196 -218 -223 -232 -284 -318 -355 -389 -441 -450 -455 0
-28 -34 -73 -77 -89 -128 -132 -143 -146 -196 -217 -241 -298 -307 -315 -358 -366 -375 -432 -456 0
-28 -34 -73 -77 -89 -128 -132 -143 -146 -196 -217 -241 -287 -295 -304 -369 -378 -386 -432 -456 0
-28 -34 -73 -77 -89 -128 -132 -143 -146 -196 -217 -233 -238 -298 -304 -369 -375 -435 -440 -456 0
-28 -34 -73 -77 -89 -128 -132 -143 -146 -196 -217 -226 -238 -295 -307 -366 -378 -435 -447 -456 0
-28 -34 -73 -77 -89 -128 -132 -143 -146 -196 -217 -226 -233 -287 -315 -358 -386 -440 -447 -456 0
-28 -34 -71 -79 -89 -126 -134 -142 -147 -196 -226 -234 -237 -284 -318 -355 -389 -436 -439 -447 0
-28 -34 -71 -79 -89 -126 -134 -142 -147 -196 -226 -232 -289 -293 -318 -355 -380 -384 -441 -447 0
-28 -34 -71 -79 -89 -126 -134 -142 -147 -196 -226 -232 -284 -309 -313 -360 -364 -389 -441 -447 0
-28 -34 -71 -79 -89 -126 -134 -142 -147 -196 -222 -234 -289 -304 -318 -355 -369 -384 -439 -451 0
-28 -34 -71 -79 -89 -126 -134 -142 -147 -196 -222 -234 -284 -298 -313 -360 -375 -389 -439 -451 0
-28 -34 -71 -79 -89 -126 -134 -142 -147 -196 -222 -232 -241 -289 -313 -360 -384 -432 -441 -451 0
-28 -34 -71 -79 -89 -126 -134 -142 -147 -196 -219 -237 -293 -304 -318 -355 -369 -380 -436 -454 0
-28 -34 -71 -79 -89 -126 -134 -142 -147 -196 -219 -237 -284 -298 -309 -364 -375 -389 -436 -454 0
-28 -34 -71 -79 -89 -126 -134 -142 -147 -196 -219 -232 -241 -293 -309 -364 -380 -432 -441 -454 0
-28 -34 -71 -79 -89 -126 -134 -142 -147 -196 -219 -222 -241 -298 -304 -369 -375 -432 -451 -454 0
-28 -34 -71 -79 -89 -126 -134 -142 -147 -196 -219 -222 -232 -284 -318 -355 -389 -441 -451 -454 0
-28 -34 -71 -79 -89 -126 -134 -142 -147 -196 -217 -241 -298 -309 -313 -360 -364 -375 -432 -456 0
-28 -34 -71 -79 -89 -126 -134 -142 -147 -196 -217 -241 -289 -293 -304 -369 -380 -384 -432 -456 0
-28 -34 -71 -79 -89 -126 -134 -142 -147 -196 -217 -234 -237 -298 -304 -369 -375 -436 -439 -456 0
-28 -34 -71 -79 -89 -126 -134 -142 -147 -196 -217 -226 -237 -293 -309 -364 -380 -436 -447 -456 0
-28 -34 -71 -79 -89 -126 -134 -142 -147 -196 -217 -226 -234 -289 -313 -360 -384 -439 -447 -456 0
-28 -34 -68 -82 -89 -123 -137 -141 -150 -196 -223 -234 -237 -287 -315 -358 -386 -436 -439 -450 0
-28 -34 -68 -82 -89 -123 -137 -141 -150 -196 -223 -233 -289 -293 -315 -358 -380 -384 -440 -450 0
-28 -34 -68 -82 -89 -123 -137 -141 -150 -196 -223 -233 -287 -309 -313 -360 -364 -386 -440 -450 0
-28 -34 -68 -82 -89 -123 -137 -141 -150 -196 -222 -234 -289 -307 -315 -358 -366 -384 -439 -451 0
-28 -34 -68 -82 -89 -123 -137 -141 -150 -196 -222 -234 -287 -295 -313 -360 -378 -386 -439 -451 0
-28 -34 -68 -82 -89 -123 -137 -141 -150 -196 -222 -233 -238 -289 -313 -360 -384 -435 -440 -451 0
-28 -34 -68 -82 -89 -123 -137 -141 -150 -196 -219 -237 -293 -307 -315 -358 -366 -380 -436 -454 0
-28 -34 -68 -82 -89 -123 -137 -141 -150 -196 -219 -237 -287 -295 -309 -364 -378 -386 -436 -454 0
-28 -34 -68 -82 -89 -123 -137 -141 -150 -196 -219 -233 -238 -293 -309 -364 -380 -435 -440 -454 0
-28 -34 -68 -82 -89 -123 -137 -141 -150 -196 -219 -222 -238 -295 -307 -366 -378 -435 -451 -454 0
-28 -34 -68 -82 -89 -123 -137 -141 -150 -196 -219 -222 -233 -287 -315 -358 -386 -440 -451 -454 0
-28 -34 -68 -82 -89 -123 -137 -141 -150 -196 -218 -238 -295 -309 -313 -360 -364 -378 -435 -455 0
-28 -34 -68 -82 -89 -123 -137 -141 -150 -196 -218 -238 -289 -293 -307 -366 -380 -384 -435 -455 0
-28 -34 -68 -82 -89 -123 -137 -141 -150 -196 -218 -234 -237 -295 -307 -366 -378 -436 -439 -455 0
-28 -34 -68 -82 -89 -123 -137 -141 -150 -196 -218 -223 -237 -293 -309 -364 -380 -436 -450 -455 0
-28 -34 -68 -82 -89 -123 -137 -141 -150 -196 -218 -223 -234 -289 -313 -360 -384 -439 -450 -455 0
-28 -33 -72 -76 -90 -129 -133 -143 -146 -196 -226 -233 -238 -285 -319 -354 -388 -435 -440 -447 0
-28 -33 -72 -76 -90 -129 -133 -143 -146 -196 -226 -232 -288 -296 -319 -354 -377 -385 -441 -447 0
-28 -33 -72 -76 -90 -129 -133 -143 -146 -196 -226 -232 -285 -308 -316 -357 -365 -388 -441 -447 0
-28 -33 -72 -76 -90 -129 -133 -143 -146 -196 -223 -233 -288 -305 -319 -354 -368 -385 -440 -450 0
-28 -33 -72 -76 -90 -129 -133 -143 -146 -196 -223 -233 -285 -299 -316 -357 -374 -388 -440 -450 0
-28 -33 -72 -76 -90 -129 -133 -143 -146 -196 -223 -232 -241 -288 -316 -357 -385 -432 -441 -450 0
-28 -33 -72 -76 -90 -129 -133 -143 -146 -196 -218 -238 -296 -305 -319 -354 -368 -377 -435 -455 0
-28 -33 -72 -76 -90 -129 -133 -143 -146 -196 -218 -238 -285 -299 -308 -365 -374 -388 -435 -455 0
-28 -33 -72 -76 -90 -129 -133 -143 -146 -196 -218 -232 -241 -296 -308 -365 -377 -432 -441 -455 0
-28 -33 -72 -76 -90 -129 -133 -143 -146 -196 -218 -223 -241 -299 -305 -368 -374 -432 -450 -455 0
-28 -33 -72 -76 -90 -129 -133 -143 -146 -196 -218 -223 -232 -285 -319 -354 -388 -441 -450 -455 0
-28 -33 -72 -76 -90 -129 -133 -143 -146 -196 -217 -241 -299 -308 -316 -357 -365 -374 -432 -456 0
-28 -33 -72 -76 -90 -129 -133 -143 -146 -196 -217 -241 -288 -296 -305 -368 -377 -385 -432 -456 0
-28 -33 -72 -76 -90 -129 -133 -143 -146 -196 -217 -233 -238 -299 -305 -368 -374 -435 -440 -456 0
-28 -33 -72 -76 -90 -129 -133 -143 -146 -196 -217 -226 -238 -296 -308 -365 -377 -435 -447 -456 0
-28 -33 -72 -76 -90 -129 -133 -143 -146 -196 -217 -226 -233 -288 -316 -357 -385 -440 -447 -456 0
-28 -33 -70 -78 -90 -127 -135 -142 -147 -196 -226 -234 -237 -285 -319 -354 -388 -436 -439 -447 0
-28 -33 -70 -78 -90 -127 -135 -142 -147 -196 -226 -232 -290 -294 -319 -354 -379 -383 -441 -447 0
-28 -33 -70 -78 -90 -127 -135 -142 -147 -196 -226 -232 -285 -310 -314 -359 -363 -388 -441 -447 0
-28 -33 -70 -78 -90 -127 -135 -142 -147 -196 -222 -234 -290 -305 -319 -354 -368 -383 -439 -451 0
-28 -33 -70 -78 -90 -127 -135 -142 -147 -196 -222 -234 -285 -299 -314 -359 -374 -388 -439 -451 0
-28 -33 -70 -78 -90 -127 -135 -142 -147 -196 -222 -232 -241 -290 -314 -359 -383 -432 -441 -451 0
-28 -33 -70 -78 -90 -127 -135 -142 -147 -196 -219 -237 -294 -305 -319 -354 -368 -379 -436 -454 0
-28 -33 -70 -78 -90 -127 -135 -142 -147 -196 -219 -237 -285 -299 -310 -363 -374 -388 -436 -454 0
-28 -33 -70 -78 -90 -127 -135 -142 -147 -196 -219 -232 -241 -294 -310 -363 -379 -432 -441 -454 0
-28 -33 -70 -78 -90 -127 -135 -142 -147 -196 -219 -222 -241 -299 -305 -368 -374 -432 -451 -454 0
-28 -33 -70 -78 -90 -127 -135 -142 -147 -196 -219 -222 -232 -285 -319 -354 -388 -441 -451 -454 0
-28 -33 -70 -78 -90 -127 -135 -142 -147 -196 -217 -241 -299 -310 -314 -359 -363 -374 -432 -456 0
-28 -33 -70 -78 -90 -127 -135 -142 -147 -196 -217 -241 -290 -294 -305 -368 -379 -383 -432 -456 0
-28 -33 -70 -78 -90 -127 -135 -142 -147 -196 -217 -234 -237 -299 -305 -368 -374 -436 -439 -456 0
-28 -33 -70 -78 -90 -127 -135 -142 -147 -196 -217 -226 -237 -294 -310 -363 -379 -436 -447 -456 0
-28 -33 -70 -78 -90 -127 -135 -142 -147 -196 -217 -226 -234 -290 -314 -359 -383 -439 -447 -456 0
-28 -33 -67 -81 -90 -124 -138 -141 -150 -196 -223 -234 -237 -288 -316 -357 -385 -436 -439 -450 0
-28 -33 -67 -81 -90 -124 -138 -141 -150 -196 -223 -233 -290 -294 -316 -357 -379 -383 -440 -450 0
-28 -33 -67 -81 -90 -124 -138 -141 -150 -196 -223 -233 -288 -310 -314 -359 -363 -385 -440 -450 0
-28 -33 -67 -81 -90 -124 -138 -141 -150 -196 -222 -234 -290 -308 -316 -357 -365 -383 -439 -451 0
-28 -33 -67 -81 -90 -124 -138 -141 -150 -196 -222 -234 -288 -296 -314 -359 -377 -385 -439 -451 0
-28 -33 -67 -81 -90 -124 -138 -141 -150 -196 -222 -233 -238 -290 -314 -359 -383 -435 -440 -451 0
-28 -33 -67 -81 -90 -124 -138 -141 -150 -196 -219 -237 -294 -308 -316 -357 -365 -379 -436 -454 0
-28 -33 -67 -81 -90 -124 -138 -141 -150 -196 -219 -237 -288 -296 -310 -363 -377 -385 -436 -454 0
-28 -33 -67 -81 -90 -124 -138 -141 -150 -196 -219 -233 -238 -294 -310 -363 -379 -435 -440 -454 0
-28 -33 -67 -81 -90 -124 -138 -141 -150 -196 -219 -222 -238 -296 -308 -365 -377 -435 -451 -454 0
-28 -33 -67 -81 -90 -124 -138 -141 -150 -196 -219 -222 -233 -288 -316 -357 -385 -440 -451 -454 0
-28 -33 -67 -81 -90 -124 -138 -141 -150 -196 -218 -238 -296 -310 -314 -359 -363 -377 -435 -455 0
-28 -33 -67 -81 -90 -124 -138 -141 -150 -196 -218 -238 -290 -294 -308 -365 -379 -383 -435 -455 0
-28 -33 -67 -81 -90 -124 -138 -141 -150 -196 -218 -234 -237 -296 -308 -365 -377 -436 -439 -455 0
-28 -33 -67 -81 -90 -124 -138 -141 -150 -196 -218 -223 -237 -294 -310 -363 -379 -436 -450 -455 0
-28 -33 -67 -81 -90 -124 -138 -141 -150 -196 -218 -223 -234 -290 -314 -359 -383 -439 -450 -455 0
-27 -49 -61 -68 -103 -115 -122 -151 -158 -176 -222 -239 -252 -269 -332 -341 -404 -421 -434 -451 0
-27 -49 -61 -68 -103 -115 -122 -151 -158 -176 -222 -235 -273 -286 -332 -341 -387 -400 -438 -451 0
-27 -49 -61 -68 -103 -115 -122 -151 -158 -176 -218 -239 -269 -292 -328 -345 -381 -404 -434 -455 0
-27 -49 -61 -68 -103 -115 -122 -151 -158 -176 -218 -235 -258 -273 -328 -345 -400 -415 -438 -455 0
-27 -47 -59 -66 -105 -117 -124 -151 -158 -176 -222 -239 -252 -271 -334 -339 -402 -421 -434 -451 0
-27 -47 -59 -66 -105 -117 -124 -151 -158 -176 -222 -235 -271 -317 -330 -343 -356 -402 -438 -451 0
-27 -47 -59 -66 -105 -117 -124 -151 -158 -176 -218 -239 -275 -311 -334 -339 -362 -398 -434 -455 0
-27 -47 -59 -66 -105 -117 -124 -151 -158 -176 -218 -235 -258 -275 -330 -343 -398 -415 -438 -455 0
-27 -46 -64 -68 -100 -118 -122 -151 -156 -178 -224 -237 -252 -269 -332 -341 -404 -421 -436 -449 0
-27 -46 -64 -68 -100 -118 -122 -151 -156 -178 -224 -233 -269 -312 -328 -345 -361 -404 -440 -449 0
-27 -46 -64 -68 -100 -118 -122 -151 -156 -178 -220 -237 -273 -306 -332 -341 -367 -400 -436 -453 0
-27 -46 -64 -68 -100 -118 -122 -151 -156 -178 -220 -233 -258 -273 -328 -345 -400 -415 -440 -453 0
-27 -44 -62 -66 -102 -120 -124 -151 -156 -178 -224 -237 -252 -271 -334 -339 -402 -421 -436 -449 0
-27 -44 -62 -66 -102 -120 -124 -151 -156 -178 -224 -233 -275 -291 -334 -339 -382 -398 -440 -449 0
-27 -44 -62 -66 -102 -120 -124 -151 -156 -178 -220 -237 -271 -297 -330 -343 -376 -402 -436 -453 0
-27 -44 -62 -66 -102 -120 -124 -151 -156 -178 -220 -233 -258 -275 -330 -343 -398 -415 -440 -453 0
-27 -43 -54 -83 -97 -108 -137 -141 -167 -181 -220 -239 -247 -276 -325 -348 -397 -426 -434 -453 0
-27 -43 -54 -83 -97 -108 -137 -141 -167 -181 -220 -237 -279 -286 -325 -348 -387 -394 -436 -453 0
-27 -43 -54 -83 -97 -108 -137 -141 -167 -181 -220 -237 -276 -315 -322 -351 -358 -397 -436 -453 0
-27 -43 -54 -83 -97 -108 -137 -141 -167 -181 -218 -239 -279 -312 -325 -348 -361 -394 -434 -455 0
-27 -43 -54 -83 -97 -108 -137 -141 -167 -181 -218 -239 -276 -289 -322 -351 -384 -397 -434 -455 0
-27 -43 -54 -83 -97 -108 -137 -141 -167 -181 -218 -237 -249 -279 -322 -351 -394 -424 -436 -455 0
-27 -43 -54 -83 -97 -108 -137 -141 -167 -181 -215 -247 -286 -312 -325 -348 -361 -387 -426 -458 0
-27 -43 -54 -83 -97 -108 -137 -141 -167 -181 -215 -247 -276 -289 -315 -358 -384 -397 -426 -458 0
-27 -43 -54 -83 -97 -108 -137 -141 -167 -181 -215 -237 -249 -286 -315 -358 -387 -424 -436 -458 0
-27 -43 -54 -83 -97 -108 -137 -141 -167 -181 -215 -218 -249 -289 -312 -361 -384 -424 -455 -458 0
-27 -43 -54 -83 -97 -108 -137 -141 -167 -181 -215 -218 -237 -276 -325 -348 -397 -436 -455 -458 0
-27 -43 -54 -83 -97 -108 -137 -141 -167 -181 -213 -249 -289 -315 -322 -351 -358 -384 -424 -460 0
-27 -43 -54 -83 -97 -108 -137 -141 -167 -181 -213 -249 -279 -286 -312 -361 -387 -394 -424 -460 0
-27 -43 -54 -83 -97 -108 -137 -141 -167 -181 -213 -239 -247 -289 -312 -361 -384 -426 -434 -460 0
-27 -43 -54 -83 -97 -108 -137 -141 -167 -181 -213 -220 -247 -286 -315 -358 -387 -426 -453 -460 0
-27 -43 -54 -83 -97 -108 -137 -141 -167 -181 -213 -220 -239 -279 -322 -351 -394 -434 -453 -460 0
-27 -41 -52 -81 -99 -110 -139 -141 -167 -181 -220 -239 -247 -278 -327 -346 -395 -426 -434 -453 0
-27 -41 -52 -81 -99 -110 -139 -141 -167 -181 -220 -237 -281 -288 -327 -346 -385 -392 -436 -453 0
-27 -41 -52 -81 -99 -110 -139 -141 -167 -181 -220 -237 -278 -317 -324 -349 -356 -395 -436 -453 0
-27 -41 -52 -81 -99 -110 -139 -141 -167 -181 -218 -239 -281 -314 -327 -346 -359 -392 -434 -455 0
-27 -41 -52 -81 -99 -110 -139 -141 -167 -181 -218 -239 -278 -291 -324 -349 -382 -395 -434 -455 0
-27 -41 -52 -81 -99 -110 -139 -141 -167 -181 -218 -237 -249 -281 -324 -349 -392 -424 -436 -455 0
-27 -41 -52 -81 -99 -110 -139 -141 -167 -181 -215 -247 -288 -314 -327 -346 -359 -385 -426 -458 0
-27 -41 -52 -81 -99 -110 -139 -141 -167 -181 -215 -247 -278 -291 -317 -356 -382 -395 -426 -458 0
-27 -41 -52 -81 -99 -110 -139 -141 -167 -181 -215 -237 -249 -288 -317 -356 -385 -424 -436 -458 0
-27 -41 -52 -81 -99 -110 -139 -141 -167 -181 -215 -218 -249 -291 -314 -359 -382 -424 -455 -458 0
-27 -41 -52 -81 -99 -110 -139 -141 -167 -181 -215 -218 -237 -278 -327 -346 -395 -436 -455 -458 0
-27 -41 -52 -81 -99 -110 -139 -141 -167 -181 -213 -249 -291 -317 -324 -349 -356 -382 -424 -460 0
-27 -41 -52 -81 -99 -110 -139 -141 -167 -181 -213 -249 -281 -288 -314 -359 -385 -392 -424 -460 0
-27 -41 -52 -81 -99 -110 -139 -141 -167 -181 -213 -239 -247 -291 -314 -359 -382 -426 -434 -460 0
-27 -41 -52 -81 -99 -110 -139 -141 -167 -181 -213 -220 -247 -288 -317 -356 -385 -426 -453 -460 0
-27 -41 -52 -81 -99 -110 -139 -141 -167 -181 -213 -220 -239 -281 -324 -349 -392 -434 -453 -460 0
-27 -39 -58 -83 -93 -112 -137 -141 -161 -187 -224 -235 -247 -276 -325 -348 -397 -426 -438 -449 0
-27 -39 -58 -83 -93 -112 -137 -141 -161 -187 -224 -233 -279 -292 -325 -348 -381 -394 -440 -449 0
-27 -39 -58 -83 -93 -112 -137 -141 -161 -187 -224 -233 -276 -309 -322 -351 -364 -397 -440 -449 0
-27 -39 -58 -83 -93 -112 -137 -141 -161 -187 -222 -235 -279 -306 -325 -348 -367 -394 -438 -451 0
-27 -39 -58 -83 -93 -112 -137 -141 -161 -187 -222 -235 -276 -295 -322 -351 -378 -397 -438 -451 0
-27 -39 -58 -83 -93 -112 -137 -141 -161 -187 -222 -233 -249 -279 -322 -351 -394 -424 -440 -451 0
-27 -39 -58 -83 -93 -112 -137 -141 -161 -187 -215 -247 -292 -306 -325 -348 -367 -381 -426 -458 0
-27 -39 -58 -83 -93 -112 -137 -141 -161 -187 -215 -247 -276 -295 -309 -364 -378 -397 -426 -458 0
-27 -39 -58 -83 -93 -112 -137 -141 -161 -187 -215 -233 -249 -292 -309 -364 -381 -424 -440 -458 0
-27 -39 -58 -83 -93 -112 -137 -141 -161 -187 -215 -222 -249 -295 -306 -367 -378 -424 -451 -458 0
-27 -39 -58 -83 -93 -112 -137 -141 -161 -187 -215 -222 -233 -276 -325 -348 -397 -440 -451 -458 0
-27 -39 -58 -83 -93 -112 -137 -141 -161 -187 -213 -249 -295 -309 -322 -351 -364 -378 -424 -460 0
-27 -39 -58 -83 -93 -112 -137 -141 -161 -187 -213 -249 -279 -292 -306 -367 -381 -394 -424 -460 0
-27 -39 -58 -83 -93 -112 -137 -141 -161 -187 -213 -235 -247 -295 -306 -367 -378 -426 -438 -460 0
-27 -39 -58 -83 -93 -112 -137 -141 -161 -187 -213 -224 -247 -292 -309 -364 -381 -426 -449 -460 0
-27 -39 -58 -83 -93 -112 -137 -141 -161 -187 -213 -224 -235 -279 -322 -351 -394 -438 -449 -460 0
-27 -37 -56 -81 -95 -114 -139 -141 -161 -187 -224 -235 -247 -278 -327 -346 -395 -426 -438 -449 0
-27 -37 -56 -81 -95 -114 -139 -141 -161 -187 -224 -233 -281 -294 -327 -346 -379 -392 -440 -449 0
-27 -37 -56 -81 -95 -114 -139 -141 -161 -187 -224 -233 -278 -311 -324 -349 -362 -395 -440 -449 0
-27 -37 -56 -81 -95 -114 -139 -141 -161 -187 -222 -235 -281 -308 -327 -346 -365 -392 -438 -451 0
-27 -37 -56 -81 -95 -114 -139 -141 -161 -187 -222 -235 -278 -297 -324 -349 -376 -395 -438 -451 0
-27 -37 -56 -81 -95 -114 -139 -141 -161 -187 -222 -233 -249 -281 -324 -349 -392 -424 -440 -451 0
-27 -37 -56 -81 -95 -114 -139 -141 -161 -187 -215 -247 -294 -308 -327 -346 -365 -379 -426 -458 0
-27 -37 -56 -81 -95 -114 -139 -141 -161 -187 -215 -247 -278 -297 -311 -362 -376 -395 -426 -458 0
-27 -37 -56 -81 -95 -114 -139 -141 -161 -187 -215 -233 -249 -294 -311 -362 -379 -424 -440 -458 0
-27 -37 -56 -81 -95 -114 -139 -141 -161 -187 -215 -222 -249 -297 -308 -365 -376 -424 -451 -458 0
-27 -37 -56 -81 -95 -114 -139 -141 -161 -187 -215 -222 -233 -278 -327 -346 -395 -440 -451 -458 0
-27 -37 -56 -81 -95 -114 -139 -141 -161 -187 -213 -249 -297 -311 -324 -349 -362 -376 -424 -460 0
-27 -37 -56 -81 -95 -114 -139 -141 -161 -187 -213 -249 -281 -294 -308 -365 -379 -392 -424 -460 0
-27 -37 -56 -81 -95 -114 -139 -141 -161 -187 -213 -235 -247 -297 -308 -365 -376 -426 -438 -460 0
-27 -37 -56 -81 -95 -114 -139 -141 -161 -187 -213 -224 -247 -294 -311 -362 -379 -426 -449 -460 0
-27 -37 -56 -81 -95 -114 -139 -141 -161 -187 -213 -224 -235 -281 -324 -349 -392 -438 -449 -460 0
-27 -34 -74 -77 -88 -128 -131 -144 -146 -197 -227 -233 -239 -283 -318 -355 -390 -434 -440 -446 0
-27 -34 -74 -77 -88 -128 -131 -144 -146 -197 -224 -233 -286 -303 -318 -355 -370 -387 -440 -449 0
-27 -34 -74 -77 -88 -128 -131 -144 -146 -197 -218 -239 -283 -298 -306 -367 -375 -390 -434 -455 0
-27 -34 -74 -77 -88 -128 -131 -144 -146 -197 -218 -224 -242 -298 -303 -370 -375 -431 -449 -455 0
-27 -34 -71 -80 -88 -125 -134 -142 -148 -197 -227 -235 -237 -283 -318 -355 -390 -436 -438 -446 0
-27 -34 -71 -80 -88 -125 -134 -142 -148 -197 -222 -235 -283 -298 -312 -361 -375 -390 -438 -451 0
-27 -34 -71 -80 -88 -125 -134 -142 -148 -197 -220 -237 -292 -303 -318 -355 -370 -381 -436 -453 0
-27 -34 -71 -80 -88 -125 -134 -142 -148 -197 -220 -222 -242 -298 -303 -370 -375 -431 -451 -453 0
-27 -34 -68 -83 -88 -122 -137 -141 -151 -197 -224 -235 -237 -286 -315 -358 -387 -436 -438 -449 0
-27 -34 -68 -83 -88 -122 -137 -141 -151 -197 -224 -233 -289 -292 -315 -358 -381 -384 -440 -449 0
-27 -34 -68 -83 -88 -122 -137 -141 -151 -197 -224 -233 -286 -309 -312 -361 -364 -387 -440 -449 0
-27 -34 -68 -83 -88 -122 -137 -141 -151 -197 -222 -235 -289 -306 -315 -358 -367 -384 -438 -451 0
-27 -34 -68 -83 -88 -122 -137 -141 -151 -197 -222 -235 -286 -295 -312 -361 -378 -387 -438 -451 0
-27 -34 -68 -83 -88 -122 -137 -141 -151 -197 -222 -233 -239 -289 -312 -361 -384 -434 -440 -451 0
-27 -34 -68 -83 -88 -122 -137 -141 -151 -197 -220 -237 -292 -306 -315 -358 -367 -381 -436 -453 0
-27 -34 -68 -83 -88 -122 -137 -141 -151 -197 -220 -237 -286 -295 -309 -364 -378 -387 -436 -453 0
-27 -34 -68 -83 -88 -122 -137 -141 -151 -197 -220 -233 -239 -292 -309 -364 -381 -434 -440 -453 0
-27 -34 -68 -83 -88 -122 -137 -141 -151 -197 -220 -222 -239 -295 -306 -367 -378 -434 -451 -453 0
-27 -34 -68 -83 -88 -122 -137 -141 -151 -197 -220 -222 -233 -286 -315 -358 -387 -440 -451 -453 0
-27 -34 -68 -83 -88 -122 -137 -141 -151 -197 -218 -239 -295 -309 -312 -361 -364 -378 -434 -455 0
-27 -34 -68 -83 -88 -122 -137 -141 -151 -197 -218 -239 -289 -292 -306 -367 -381 -384 -434 -455 0
-27 -34 -68 -83 -88 -122 -137 -141 -151 -197 -218 -235 -237 -295 -306 -367 -378 -436 -438 -455 0
-27 -34 -68 -83 -88 -122 -137 -141 -151 -197 -218 -224 -237 -292 -309 -364 -381 -436 -449 -455 0
-27 -34 -68 -83 -88 -122 -137 -141 -151 -197 -218 -224 -235 -289 -312 -361 -384 -438 -449 -455 0
-27 -32 -72 -75 -90 -130 -133 -144 -146 -197 -227 -233 -239 -285 -320 -353 -388 -434 -440 -446 0
-27 -32 -72 -75 -90 -130 -133 -144 -146 -197 -224 -233 -285 -300 -317 -356 -373 -388 -440 -449 0
-27 -32 -72 -75 -90 -130 -133 -144 -146 -197 -218 -239 -297 -305 -320 -353 -368 -376 -434 -455 0
-27 -32 -72 -75 -90 -130 -133 -144 -146 -197 -218 -224 -242 -300 -305 -368 -373 -431 -449 -455 0
-27 -32 -69 -78 -90 -127 -136 -142 -148 -197 -227 -235 -237 -285 -320 -353 -388 -436 -438 -446 0
-27 -32 -69 -78 -90 -127 -136 -142 -148 -197 -222 -235 -291 -305 -320 -353 -368 -382 -438 -451 0
-27 -32 -69 -78 -90 -127 -136 -142 -148 -197 -220 -237 -285 -300 -311 -362 -373 -388 -436 -453 0
-27 -32 -69 -78 -90 -127 -136 -142 -148 -197 -220 -222 -242 -300 -305 -368 -373 -431 -451 -453 0
-27 -32 -66 -81 -90 -124 -139 -141 -151 -197 -224 -235 -237 -288 -317 -356 -385 -436 -438 -449 0
-27 -32 -66 -81 -90 -124 -139 -141 -151 -197 -224 -233 -291 -294 -317 -356 -379 -382 -440 -449 0
-27 -32 -66 -81 -90 -124 -139 -141 -151 -197 -224 -233 -288 -311 -314 -359 -362 -385 -440 -449 0
-27 -32 -66 -81 -90 -124 -139 -141 -151 -197 -222 -235 -291 -308 -317 -356 -365 -382 -438 -451 0
-27 -32 -66 -81 -90 -124 -139 -141 -151 -197 -222 -235 -288 -297 -314 -359 -376 -385 -438 -451 0
-27 -32 -66 -81 -90 -124 -139 -141 -151 -197 -222 -233 -239 -291 -314 -359 -382 -434 -440 -451 0
-27 -32 -66 -81 -90 -124 -139 -141 -151 -197 -220 -237 -294 -308 -317 -356 -365 -379 -436 -453 0
-27 -32 -66 -81 -90 -124 -139 -141 -151 -197 -220 -237 -288 -297 -311 -362 -376 -385 -436 -453 0
-27 -32 -66 -81 -90 -124 -139 -141 -151 -197 -220 -233 -239 -294 -311 -362 -379 -434 -440 -453 0
-27 -32 -66 -81 -90 -124 -139 -141 -151 -197 -220 -222 -239 -297 -308 -365 -376 -434 -451 -453 0
-27 -32 -66 -81 -90 -124 -139 -141 -151 -197 -220 -222 -233 -288 -317 -356 -385 -440 -451 -453 0
-27 -32 -66 -81 -90 -124 -139 -141 -151 -197 -218 -239 -297 -311 -314 -359 -362 -376 -434 -455 0
-27 -32 -66 -81 -90 -124 -139 -141 -151 -197 -218 -239 -291 -294 -308 -365 -379 -382 -434 -455 0
-27 -32 -66 -81 -90 -124 -139 -141 -151 -197 -218 -235 -237 -297 -308 -365 -376 -436 -438 -455 0
-27 -32 -66 -81 -90 -124 -139 -141 -151 -197 -218 -224 -237 -294 -311 -362 -379 -436 -449 -455 0
-27 -32 -66 -81 -90 -124 -139 -141 -151 -197 -218 -224 -235 -291 -314 -359 -382 -438 -449 -455 0
-26 -49 -60 -67 -104 -115 -122 -152 -159 -176 -222 -240 -253 -269 -333 -340 -404 -420 -433 -451 0
-26 -49 -60 -67 -104 -115 -122 -152 -159 -176 -222 -236 -273 -286 -333 -340 -387 -400 -437 -451 0
-26 -49 -60 -67 -104 -115 -122 -152 -159 -176 -218 -240 -269 -292 -329 -344 -381 -404 -433 -455 0
-26 -49 -60 -67 -104 -115 -122 -152 -159 -176 -218 -236 -259 -273 -329 -344 -400 -414 -437 -455 0
-26 -48 -59 -66 -105 -116 -123 -152 -159 -176 -222 -240 -253 -270 -334 -339 -403 -420 -433 -451 0
-26 -48 -59 -66 -105 -116 -123 -152 -159 -176 -222 -236 -270 -317 -330 -343 -356 -403 -437 -451 0
-26 -48 -59 -66 -105 -116 -123 -152 -159 -176 -218 -240 -274 -311 -334 -339 -362 -399 -433 -455 0
-26 -48 -59 -66 -105 -116 -123 -152 -159 -176 -218 -236 -259 -274 -330 -343 -399 -414 -437 -455 0
-26 -45 -64 -67 -100 -119 -122 -152 -156 -179 -225 -237 -253 -269 -333 -340 -404 -420 -436 -448 0
-26 -45 -64 -67 -100 -119 -122 -152 -156 -179 -225 -233 -269 -312 -329 -344 -361 -404 -440 -448 0
-26 -45 -64 -67 -100 -119 -122 -152 -156 -179 -221 -237 -273 -306 -333 -340 -367 -400 -436 -452 0
-26 -45 -64 -67 -100 -119 -122 -152 -156 -179 -221 -233 -259 -273 -329 -344 -400 -414 -440 -452 0
-26 -44 -63 -66 -101 -120 -123 -152 -156 -179 -225 -237 -253 -270 -334 -339 -403 -420 -436 -448 0
-26 -44 -63 -66 -101 -120 -123 -152 -156 -179 -225 -233 -274 -291 -334 -339 -382 -399 -440 -448 0
-26 -44 -63 -66 -101 -120 -123 -152 -156 -179 -221 -237 -270 -297 -330 -343 -376 -403 -436 -452 0
-26 -44 -63 -66 -101 -120 -123 -152 -156 -179 -221 -233 -259 -274 -330 -343 -399 -414 -440 -452 0
-26 -42 -53 -83 -97 -108 -138 -141 -168 -182 -221 -240 -247 -276 -326 -347 -397 -426 -433 -452 0
-26 -42 -53 -83 -97 -108 -138 -141 -168 -182 -221 -237 -280 -286 -326 -347 -387 -393 -436 -452 0
-26 -42 -53 -83 -97 -108 -138 -141 -168 -182 -221 -237 -276 -316 -322 -351 -357 -397 -436 -452 0
-26 -42 -53 -83 -97 -108 -138 -141 -168 -182 -218 -240 -280 -312 -326 -347 -361 -393 -433 -455 0
-26 -42 -53 -83 -97 -108 -138 -141 -168 -182 -218 -240 -276 -290 -322 -351 -383 -397 -433 -455 0
-26 -42 -53 -83 -97 -108 -138 -141 -168 -182 -218 -237 -250 -280 -322 -351 -393 -423 -436 -455 0
-26 -42 -53 -83 -97 -108 -138 -141 -168 -182 -216 -247 -286 -312 -326 -347 -361 -387 -426 -457 0
-26 -42 -53 -83 -97 -108 -138 -141 -168 -182 -216 -247 -276 -290 -316 -357 -383 -397 -426 -457 0
-26 -42 -53 -83 -97 -108 -138 -141 -168 -182 -216 -237 -250 -286 -316 -357 -387 -423 -436 -457 0
-26 -42 -53 -83 -97 -108 -138 -141 -168 -182 -216 -218 -250 -290 -312 -361 -383 -423 -455 -457 0
-26 -42 -53 -83 -97 -108 -138 -141 -168 -182 -216 -218 -237 -276 -326 -347 -397 -436 -455 -457 0
-26 -42 -53 -83 -97 -108 -138 -141 -168 -182 -213 -250 -290 -316 -322 -351 -357 -383 -423 -460 0
-26 -42 -53 -83 -97 -108 -138 -141 -168 -182 -213 -250 -280 -286 -312 -361 -387 -393 -423 -460 0
-26 -42 -53 -83 -97 -108 -138 -141 -168 -182 -213 -240 -247 -290 -312 -361 -383 -426 -433 -460 0
-26 -42 -53 -83 -97 -108 -138 -141 -168 -182 -213 -221 -247 -286 -316 -357 -387 -426 -452 -460 0
-26 -42 -53 -83 -97 -108 -138 -141 -168 -182 -213 -221 -240 -280 -322 -351 -393 -433 -452 -460 0
-26 -41 -52 -82 -98 -109 -139 -141 -168 -182 -221 -240 -247 -277 -327 -346 -396 -426 -433 -452 0
-26 -41 -52 -82 -98 -109 -139 -141 -168 -182 -221 -237 -281 -287 -327 -346 -386 -392 -436 -452 0
-26 -41 -52 -82 -98 -109 -139 -141 -168 -182 -221 -237 -277 -317 -323 -350 -356 -396 -436 -452 0
-26 -41 -52 -82 -98 -109 -139 -141 -168 -182 -218 -240 -281 -313 -327 -346 -360 -392 -433 -455 0
-26 -41 -52 -82 -98 -109 -139 -141 -168 -182 -218 -240 -277 -291 -323 -350 -382 -396 -433 -455 0
-26 -41 -52 -82 -98 -109 -139 -141 -168 -182 -218 -237 -250 -281 -323 -350 -392 -423 -436 -455 0
-26 -41 -52 -82 -98 -109 -139 -141 -168 -182 -216 -247 -287 -313 -327 -346 -360 -386 -426 -457 0
-26 -41 -52 -82 -98 -109 -139 -141 -168 -182 -216 -247 -277 -291 -317 -356 -382 -396 -426 -457 0
-26 -41 -52 -82 -98 -109 -139 -141 -168 -182 -216 -237 -250 -287 -317 -356 -386 -423 -436 -457 0
-26 -41 -52 -82 -98 -109 -139 -141 -168 -182 -216 -218 -250 -291 -313 -360 -382 -423 -455 -457 0
-26 -41 -52 -82 -98 -109 -139 -141 -168 -182 -216 -218 -237 -277 -327 -346 -396 -436 -455 -457 0
-26 -41 -52 -82 -98 -109 -139 -141 -168 -182 -213 -250 -291 -317 -323 -350 -356 -382 -423 -460 0
-26 -41 -52 -82 -98 -109 -139 -141 -168 -182 -213 -250 -281 -287 -313 -360 -386 -392 -423 -460 0
-26 -41 -52 -82 -98 -109 -139 -141 -168 -182 -213 -240 -247 -291 -313 -360 -382 -426 -433 -460 0
-26 -41 -52 -82 -98 -109 -139 -141 -168 -182 -213 -221 -247 -287 -317 -356 -386 -426 -452 -460 0
-26 -41 -52 -82 -98 -109 -139 -141 -168 -182 -213 -221 -240 -281 -323 -350 -392 -433 -452 -460 0
-26 -38 -57 -83 -93 -112 -138 -141 -162 -188 -225 -236 -247 -276 -326 -347 -397 -426 -437 -448 0
-26 -38 -57 -83 -93 -112 -138 -141 -162 -188 -225 -233 -280 -292 -326 -347 -381 -393 -440 -448 0
-26 -38 -57 -83 -93 -112 -138 -141 -162 -188 -225 -233 -276 -310 -322 -351 -363 -397 -440 -448 0
-26 -38 -57 -83 -93 -112 -138 -141 -162 -188 -222 -236 -280 -306 -326 -347 -367 -393 -437 -451 0
-26 -38 -57 -83 -93 -112 -138 -141 -162 -188 -222 -236 -276 -296 -322 -351 -377 -397 -437 -451 0
-26 -38 -57 -83 -93 -112 -138 -141 -162 -188 -222 -233 -250 -280 -322 -351 -393 -423 -440 -451 0
-26 -38 -57 -83 -93 -112 -138 -141 -162 -188 -216 -247 -292 -306 -326 -347 -367 -381 -426 -457 0
-26 -38 -57 -83 -93 -112 -138 -141 -162 -188 -216 -247 -276 -296 -310 -363 -377 -397 -426 -457 0
-26 -38 -57 -83 -93 -112 -138 -141 -162 -188 -216 -233 -250 -292 -310 -363 -381 -423 -440 -457 0
-26 -38 -57 -83 -93 -112 -138 -141 -162 -188 -216 -222 -250 -296 -306 -367 -377 -423 -451 -457 0
-26 -38 -57 -83 -93 -112 -138 -141 -162 -188 -216 -222 -233 -276 -326 -347 -397 -440 -451 -457 0
-26 -38 -57 -83 -93 -112 -138 -141 -162 -188 -213 -250 -296 -310 -322 -351 -363 -377 -423 -460 0
-26 -38 -57 -83 -93 -112 -138 -141 -162 -188 -213 -250 -280 -292 -306 -367 -381 -393 -423 -460 0
-26 -38 -57 -83 -93 -112 -138 -141 -162 -188 -213 -236 -247 -296 -306 -367 -377 -426 -437 -460 0
-26 -38 -57 -83 -93 -112 -138 -141 -162 -188 -213 -225 -247 -292 -310 -363 -381 -426 -448 -460 0
-26 -38 -57 -83 -93 -112 -138 -141 -162 -188 -213 -225 -236 -280 -322 -351 -393 -437 -448 -460 0
-26 -37 -56 -82 -94 -113 -139 -141 -162 -188 -225 -236 -247 -277 -327 -346 -396 -426 -437 -448 0
-26 -37 -56 -82 -94 -113 -139 -141 -162 -188 -225 -233 -281 -293 -327 -346 -380 -392 -440 -448 0
-26 -37 -56 -82 -94 -113 -139 -141 -162 -188 -225 -233 -277 -311 -323 -350 -362 -396 -440 -448 0
-26 -37 -56 -82 -94 -113 -139 -141 -162 -188 -222 -236 -281 -307 -327 -346 -366 -392 -437 -451 0
-26 -37 -56 -82 -94 -113 -139 -141 -162 -188 -222 -236 -277 -297 -323 -350 -376 -396 -437 -451 0
-26 -37 -56 -82 -94 -113 -139 -141 -162 -188 -222 -233 -250 -281 -323 -350 -392 -423 -440 -451 0
-26 -37 -56 -82 -94 -113 -139 -141 -162 -188 -216 -247 -293 -307 -327 -346 -366 -380 -426 -457 0
-26 -37 -56 -82 -94 -113 -139 -141 -162 -188 -216 -247 -277 -297 -311 -362 -376 -396 -426 -457 0
-26 -37 -56 -82 -94 -113 -139 -141 -162 -188 -216 -233 -250 -293 -311 -362 -380 -423 -440 -457 0
-26 -37 -56 -82 -94 -113 -139 -141 -162 -188 -216 -222 -250 -297 -307 -366 -376 -423 -451 -457 0
-26 -37 -56 -82 -94 -113 -139 -141 -162 -188 -216 -222 -233 -277 -327 -346 -396 -440 -451 -457 0
-26 -37 -56 -82 -94 -113 -139 -141 -162 -188 -213 -250 -297 -311 -323 -350 -362 -376 -423 -460 0
-26 -37 -56 -82 -94 -113 -139 -141 -162 -188 -213 -250 -281 -293 -307 -366 -380 -392 -423 -460 0
-26 -37 -56 -82 -94 -113 -139 -141 -162 -188 -213 -236 -247 -297 -307 -366 -376 -426 -437 -460 0
-26 -37 -56 -82 -94 -113 -139 -141 -162 -188 -213 -225 -247 -293 -311 -362 -380 -426 -448 -460 0
-26 -37 -56 -82 -94 -113 -139 -141 -162 -188 -213 -225 -236 -281 -323 -350 -392 -437 -448 -460 0
-26 -33 -74 -76 -88 -129 -131 -145 -146 -198 -228 -233 -240 -283 -319 -354 -390 -433 -440 -445 0
-26 -33 -74 -76 -88 -129 -131 -145 -146 -198 -225 -233 -286 -303 -319 -354 -370 -387 -440 -448 0
-26 -33 -74 -76 -88 -129 -131 -145 -146 -198 -218 -240 -283 -299 -306 -367 -374 -390 -433 -455 0
-26 -33 -74 -76 -88 -129 -131 -145 -146 -198 -218 -225 -243 -299 -303 -370 -374 -430 -448 -455 0
-26 -33 -70 -80 -88 -125 -135 -142 -149 -198 -228 -236 -237 -283 -319 -354 -390 -436 -437 -445 0
-26 -33 -70 -80 -88 -125 -135 -142 -149 -198 -222 -236 -283 -299 -312 -361 -374 -390 -437 -451 0
-26 -33 -70 -80 -88 -125 -135 -142 -149 -198 -221 -237 -292 -303 -319 -354 -370 -381 -436 -452 0
-26 -33 -70 -80 -88 -125 -135 -142 -149 -198 -221 -222 -243 -299 -303 -370 -374 -430 -451 -452 0
-26 -33 -67 -83 -88 -122 -138 -141 -152 -198 -225 -236 -237 -286 -316 -357 -387 -436 -437 -448 0
-26 -33 -67 -83 -88 -122 -138 -141 -152 -198 -225 -233 -290 -292 -316 -357 -381 -383 -440 -448 0
-26 -33 -67 -83 -88 -122 -138 -141 -152 -198 -225 -233 -286 -310 -312 -361 -363 -387 -440 -448 0
-26 -33 -67 -83 -88 -122 -138 -141 -152 -198 -222 -236 -290 -306 -316 -357 -367 -383 -437 -451 0
-26 -33 -67 -83 -88 -122 -138 -141 -152 -198 -222 -236 -286 -296 -312 -361 -377 -387 -437 -451 0
-26 -33 -67 -83 -88 -122 -138 -141 -152 -198 -222 -233 -240 -290 -312 -361 -383 -433 -440 -451 0
-26 -33 -67 -83 -88 -122 -138 -141 -152 -198 -221 -237 -292 -306 -316 -357 -367 -381 -436 -452 0
-26 -33 -67 -83 -88 -122 -138 -141 -152 -198 -221 -237 -286 -296 -310 -363 -377 -387 -436 -452 0
-26 -33 -67 -83 -88 -122 -138 -141 -152 -198 -221 -233 -240 -292 -310 -363 -381 -433 -440 -452 0
-26 -33 -67 -83 -88 -122 -138 -141 -152 -198 -221 -222 -240 -296 -306 -367 -377 -433 -451 -452 0
-26 -33 -67 -83 -88 -122 -138 -141 -152 -198 -221 -222 -233 -286 -316 -357 -387 -440 -451 -452 0
-26 -33 -67 -83 -88 -122 -138 -141 -152 -198 -218 -240 -296 -310 -312 -361 -363 -377 -433 -455 0
-26 -33 -67 -83 -88 -122 -138 -141 -152 -198 -218 -240 -290 -292 -306 -367 -381 -383 -433 -455 0
-26 -33 -67 -83 -88 -122 -138 -141 -152 -198 -218 -236 -237 -296 -306 -367 -377 -436 -437 -455 0
-26 -33 -67 -83 -88 -122 -138 -141 -152 -198 -218 -225 -237 -292 -310 -363 -381 -436 -448 -455 0
-26 -33 -67 -83 -88 -122 -138 -141 -152 -198 -218 -225 -236 -290 -312 -361 -383 -437 -448 -455 0
-26 -32 -73 -75 -89 -130 -132 -145 -146 -198 -228 -233 -240 -284 -320 -353 -389 -433 -440 -445 0
-26 -32 -73 -75 -89 -130 -132 -145 -146 -198 -225 -233 -284 -300 -317 -356 -373 -389 -440 -448 0
-26 -32 -73 -75 -89 -130 -132 -145 -146 -198 -218 -240 -297 -304 -320 -353 -369 -376 -433 -455 0
-26 -32 -73 -75 -89 -130 -132 -145 -146 -198 -218 -225 -243 -300 -304 -369 -373 -430 -448 -455 0
-26 -32 -69 -79 -89 -126 -136 -142 -149 -198 -228 -236 -237 -284 -320 -353 -389 -436 -437 -445 0
-26 -32 -69 -79 -89 -126 -136 -142 -149 -198 -222 -236 -291 -304 -320 -353 -369 -382 -437 -451 0
-26 -32 -69 -79 -89 -126 -136 -142 -149 -198 -221 -237 -284 -300 -311 -362 -373 -389 -436 -452 0
-26 -32 -69 -79 -89 -126 -136 -142 -149 -198 -221 -222 -243 -300 -304 -369 -373 -430 -451 -452 0
-26 -32 -66 -82 -89 -123 -139 -141 -152 -198 -225 -236 -237 -287 -317 -356 -386 -436 -437 -448 0
-26 -32 -66 -82 -89 -123 -139 -141 -152 -198 -225 -233 -291 -293 -317 -356 -380 -382 -440 -448 0
-26 -32 -66 -82 -89 -123 -139 -141 -152 -198 -225 -233 -287 -311 -313 -360 -362 -386 -440 -448 0
-26 -32 -66 -82 -89 -123 -139 -141 -152 -198 -222 -236 -291 -307 -317 -356 -366 -382 -437 -451 0
-26 -32 -66 -82 -89 -123 -139 -141 -152 -198 -222 -236 -287 -297 -313 -360 -376 -386 -437 -451 0
-26 -32 -66 -82 -89 -123 -139 -141 -152 -198 -222 -233 -240 -291 -313 -360 -382 -433 -440 -451 0
-26 -32 -66 -82 -89 -123 -139 -141 -152 -198 -221 -237 -293 -307 -317 -356 -366 -380 -436 -452 0
-26 -32 -66 -82 -89 -123 -139 -141 -152 -198 -221 -237 -287 -297 -311 -362 -376 -386 -436 -452 0
-26 -32 -66 -82 -89 -123 -139 -141 -152 -198 -221 -233 -240 -293 -311 -362 -380 -433 -440 -452 0
-26 -32 -66 -82 -89 -123 -139 -141 -152 -198 -221 -222 -240 -297 -307 -366 -376 -433 -451 -452 0
-26 -32 -66 -82 -89 -123 -139 -141 -152 -198 -221 -222 -233 -287 -317 -356 -386 -440 -451 -452 0
-26 -32 -66 -82 -89 -123 -139 -141 -152 -198 -218 -240 -297 -311 -313 -360 -362 -376 -433 -455 0
-26 -32 -66 -82 -89 -123 -139 -141 -152 -198 -218 -240 -291 -293 -307 -366 -380 -382 -433 -455 0
-26 -32 -66 -82 -89 -123 -139 -141 -152 -198 -218 -236 -237 -297 -307 -366 -376 -436 -437 -455 0
-26 -32 -66 -82 -89 -123 -139 -141 -152 -198 -218 -225 -237 -293 -311 -362 -380 -436 -448 -455 0
-26 -32 -66 -82 -89 -123 -139 -141 -152 -198 -218 -225 -236 -291 -313 -360 -382 -437 -448 -455 0
-25 -49 -63 -68 -101 -115 -121 -153 -158 -177 -223 -239 -254 -268 -332 -341 -405 -419 -434 -450 0
-25 -49 -63 -68 -101 -115 -121 -153 -158 -177 -223 -235 -272 -286 -332 -341 -387 -401 -438 -450 0
-25 -49 -63 -68 -101 -115 -121 -153 -158 -177 -219 -239 -268 -292 -328 -345 -381 -405 -434 -454 0
-25 -49 -63 -68 -101 -115 -121 -153 -158 -177 -219 -235 -260 -272 -328 -345 -401 -413 -438 -454 0
-25 -48 -64 -68 -100 -116 -121 -153 -157 -178 -224 -238 -254 -268 -332 -341 -405 -419 -435 -449 0
-25 -48 -64 -68 -100 -116 -121 -153 -157 -178 -224 -234 -268 -312 -328 -345 -361 -405 -439 -449 0
-25 -48 -64 -68 -100 -116 -121 -153 -157 -178 -220 -238 -272 -306 -332 -341 -367 -401 -435 -453 0
-25 -48 -64 -68 -100 -116 -121 -153 -157 -178 -220 -234 -260 -272 -328 -345 -401 -413 -439 -453 0
-25 -45 -59 -65 -105 -119 -124 -153 -158 -177 -223 -239 -254 -271 -335 -338 -402 -419 -434 -450 0
-25 -45 -59 -65 -105 -119 -124 -153 -158 -177 -223 -235 -271 -317 -331 -342 -356 -402 -438 -450 0
-25 -45 -59 -65 -105 -119 -124 -153 -158 -177 -219 -239 -275 -311 -335 -338 -362 -398 -434 -454 0
-25 -45 -59 -65 -105 -119 -124 -153 -158 -177 -219 -235 -260 -275 -331 -342 -398 -413 -438 -454 0
-25 -44 -60 -65 -104 -120 -124 -153 -157 -178 -224 -238 -254 -271 -335 -338 -402 -419 -435 -449 0
-25 -44 -60 -65 -104 -120 -124 -153 -157 -178 -224 -234 -275 -291 -335 -338 -382 -398 -439 -449 0
-25 -44 -60 -65 -104 -120 -124 -153 -157 -178 -220 -238 -271 -297 -331 -342 -376 -402 -435 -453 0
-25 -44 -60 -65 -104 -120 -124 -153 -157 -178 -220 -234 -260 -275 -331 -342 -398 -413 -439 -453 0
-25 -43 -54 -84 -96 -107 -137 -141 -169 -183 -220 -239 -248 -276 -323 -350 -397 -425 -434 -453 0
-25 -43 -54 -84 -96 -107 -137 -141 -169 -183 -220 -238 -277 -286 -323 -350 -387 -396 -435 -453 0
-25 -43 -54 -84 -96 -107 -137 -141 -169 -183 -220 -238 -276 -313 -322 -351 -360 -397 -435 -453 0
-25 -43 -54 -84 -96 -107 -137 -141 -169 -183 -219 -239 -277 -312 -323 -350 -361 -396 -434 -454 0
-25 -43 -54 -84 -96 -107 -137 -141 -169 -183 -219 -239 -276 -287 -322 -351 -386 -397 -434 -454 0
-25 -43 -54 -84 -96 -107 -137 -141 -169 -183 -219 -238 -249 -277 -322 -351 -396 -424 -435 -454 0
-25 -43 -54 -84 -96 -107 -137 -141 -169 -183 -215 -248 -286 -312 -323 -350 -361 -387 -425 -458 0
-25 -43 -54 -84 -96 -107 -137 -141 -169 -183 -215 -248 -276 -287 -313 -360 -386 -397 -425 -458 0
-25 -43 -54 -84 -96 -107 -137 -141 -169 -183 -215 -238 -249 -286 -313 -360 -387 -424 -435 -458 0
-25 -43 -54 -84 -96 -107 -137 -141 -169 -183 -215 -219 -249 -287 -312 -361 -386 -424 -454 -458 0
-25 -43 -54 -84 -96 -107 -137 -141 -169 -183 -215 -219 -238 -276 -323 -350 -397 -435 -454 -458 0
-25 -43 -54 -84 -96 -107 -137 -141 -169 -183 -214 -249 -287 -313 -322 -351 -360 -386 -424 -459 0
-25 -43 -54 -84 -96 -107 -137 -141 -169 -183 -214 -249 -277 -286 -312 -361 -387 -396 -424 -459 0
-25 -43 -54 -84 -96 -107 -137 -141 -169 -183 -214 -239 -248 -287 -312 -361 -386 -425 -434 -459 0
-25 -43 -54 -84 -96 -107 -137 -141 -169 -183 -214 -220 -248 -286 -313 -360 -387 -425 -453 -459 0
-25 -43 -54 -84 -96 -107 -137 -141 -169 -183 -214 -220 -239 -277 -322 -351 -396 -434 -453 -459 0
-25 -40 -51 -81 -99 -110 -140 -141 -169 -183 -220 -239 -248 -280 -327 -346 -393 -425 -434 -453 0
-25 -40 -51 -81 -99 -110 -140 -141 -169 -183 -220 -238 -281 -290 -327 -346 -383 -392 -435 -453 0
-25 -40 -51 -81 -99 -110 -140 -141 -169 -183 -220 -238 -280 -317 -326 -347 -356 -393 -435 -453 0
-25 -40 -51 -81 -99 -110 -140 -141 -169 -183 -219 -239 -281 -316 -327 -346 -357 -392 -434 -454 0
-25 -40 -51 -81 -99 -110 -140 -141 -169 -183 -219 -239 -280 -291 -326 -347 -382 -393 -434 -454 0
-25 -40 -51 -81 -99 -110 -140 -141 -169 -183 -219 -238 -249 -281 -326 -347 -392 -424 -435 -454 0
-25 -40 -51 -81 -99 -110 -140 -141 -169 -183 -215 -248 -290 -316 -327 -346 -357 -383 -425 -458 0
-25 -40 -51 -81 -99 -110 -140 -141 -169 -183 -215 -248 -280 -291 -317 -356 -382 -393 -425 -458 0
-25 -40 -51 -81 -99 -110 -140 -141 -169 -183 -215 -238 -249 -290 -317 -356 -383 -424 -435 -458 0
-25 -40 -51 -81 -99 -110 -140 -141 -169 -183 -215 -219 -249 -291 -316 -357 -382 -424 -454 -458 0
-25 -40 -51 -81 -99 -110 -140 -141 -169 -183 -215 -219 -238 -280 -327 -346 -393 -435 -454 -458 0
-25 -40 -51 -81 -99 -110 -140 -141 -169 -183 -214 -249 -291 -317 -326 -347 -356 -382 -424 -459 0
-25 -40 -51 -81 -99 -110 -140 -141 -169 -183 -214 -249 -281 -290 -316 -357 -383 -392 -424 -459 0
-25 -40 -51 -81 -99 -110 -140 -141 -169 -183 -214 -239 -248 -291 -316 -357 -382 -425 -434 -459 0
-25 -40 -51 -81 -99 -110 -140 -141 -169 -183 -214 -220 -248 -290 -317 -356 -383 -425 -453 -459 0
-25 -40 -51 -81 -99 -110 -140 -141 -169 -183 -214 -220 -239 -281 -326 -347 -392 -434 -453 -459 0
-25 -39 -58 -84 -92 -111 -137 -141 -163 -189 -224 -235 -248 -276 -323 -350 -397 -425 -438 -449 0
-25 -39 -58 -84 -92 -111 -137 -141 -163 -189 -224 -234 -277 -292 -323 -350 -381 -396 -439 -449 0
-25 -39 -58 -84 -92 -111 -137 -141 -163 -189 -224 -234 -276 -307 -322 -351 -366 -397 -439 -449 0
-25 -39 -58 -84 -92 -111 -137 -141 -163 -189 -223 -235 -277 -306 -323 -350 -367 -396 -438 -450 0
-25 -39 -58 -84 -92 -111 -137 -141 -163 -189 -223 -235 -276 -293 -322 -351 -380 -397 -438 -450 0
-25 -39 -58 -84 -92 -111 -137 -141 -163 -189 -223 -234 -249 -277 -322 -351 -396 -424 -439 -450 0
-25 -39 -58 -84 -92 -111 -137 -141 -163 -189 -215 -248 -292 -306 -323 -350 -367 -381 -425 -458 0
-25 -39 -58 -84 -92 -111 -137 -141 -163 -189 -215 -248 -276 -293 -307 -366 -380 -397 -425 -458 0
-25 -39 -58 -84 -92 -111 -137 -141 -163 -189 -215 -234 -249 -292 -307 -366 -381 -424 -439 -458 0
-25 -39 -58 -84 -92 -111 -137 -141 -163 -189 -215 -223 -249 -293 -306 -367 -380 -424 -450 -458 0
-25 -39 -58 -84 -92 -111 -137 -141 -163 -189 -215 -223 -234 -276 -323 -350 -397 -439 -450 -458 0
-25 -39 -58 -84 -92 -111 -137 -141 -163 -189 -214 -249 -293 -307 -322 -351 -366 -380 -424 -459 0
-25 -39 -58 -84 -92 -111 -137 -141 -163 -189 -214 -249 -277 -292 -306 -367 -381 -396 -424 -459 0
-25 -39 -58 -84 -92 -111 -137 -141 -163 -189 -214 -235 -248 -293 -306 -367 -380 -425 -438 -459 0
-25 -39 -58 -84 -92 -111 -137 -141 -163 -189 -214 -224 -248 -292 -307 -366 -381 -425 -449 -459 0
-25 -39 -58 -84 -92 -111 -137 -141 -163 -189 -214 -224 -235 -277 -322 -351 -396 -438 -449 -459 0
-25 -36 -55 -81 -95 -114 -140 -141 -163 -189 -224 -235 -248 -280 -327 -346 -393 -425 -438 -449 0
-25 -36 -55 -81 -95 -114 -140 -141 -163 -189 -224 -234 -281 -296 -327 -346 -377 -392 -439 -449 0
-25 -36 -55 -81 -95 -114 -140 -141 -163 -189 -224 -234 -280 -311 -326 -347 -362 -393 -439 -449 0
-25 -36 -55 -81 -95 -114 -140 -141 -163 -189 -223 -235 -281 -310 -327 -346 -363 -392 -438 -450 0
-25 -36 -55 -81 -95 -114 -140 -141 -163 -189 -223 -235 -280 -297 -326 -347 -376 -393 -438 -450 0
-25 -36 -55 -81 -95 -114 -140 -141 -163 -189 -223 -234 -249 -281 -326 -347 -392 -424 -439 -450 0
-25 -36 -55 -81 -95 -114 -140 -141 -163 -189 -215 -248 -296 -310 -327 -346 -363 -377 -425 -458 0
-25 -36 -55 -81 -95 -114 -140 -141 -163 -189 -215 -248 -280 -297 -311 -362 -376 -393 -425 -458 0
-25 -36 -55 -81 -95 -114 -140 -141 -163 -189 -215 -234 -249 -296 -311 -362 -377 -424 -439 -458 0
-25 -36 -55 -81 -95 -114 -140 -141 -163 -189 -215 -223 -249 -297 -310 -363 -376 -424 -450 -458 0
-25 -36 -55 -81 -95 -114 -140 -141 -163 -189 -215 -223 -234 -280 -327 -346 -393 -439 -450 -458 0
-25 -36 -55 -81 -95 -114 -140 -141 -163 -189 -214 -249 -297 -311 -326 -347 -362 -376 -424 -459 0
-25 -36 -55 -81 -95 -114 -140 -141 -163 -189 -214 -249 -281 -296 -310 -363 -377 -392 -424 -459 0
-25 -36 -55 -81 -95 -114 -140 -141 -163 -189 -214 -235 -248 -297 -310 -363 -376 -425 -438 -459 0
-25 -36 -55 -81 -95 -114 -140 -141 -163 -189 -214 -224 -248 -296 -311 -362 -377 -425 -449 -459 0
-25 -36 -55 -81 -95 -114 -140 -141 -163 -189 -214 -224 -235 -281 -326 -347 -392 -438 -449 -459 0
-25 -34 -74 -79 -87 -126 -131 -144 -147 -199 -229 -234 -239 -282 -318 -355 -391 -434 -439 -444 0
-25 -34 -74 -79 -87 -126 -131 -144 -147 -199 -224 -234 -286 -302 -318 -355 -371 -387 -439 -449 0
-25 -34 -74 -79 -87 -126 -131 -144 -147 -199 -219 -239 -282 -298 -306 -367 -375 -391 -434 -454 0
-25 -34 -74 -79 -87 -126 -131 -144 -147 -199 -219 -224 -244 -298 -302 -371 -375 -429 -449 -454 0
-25 -34 -73 -80 -87 -125 -132 -143 -148 -199 -229 -235 -238 -282 -318 -355 -391 -435 -438 -444 0
-25 -34 -73 -80 -87 -125 -132 -143 -148 -199 -223 -235 -282 -298 -312 -361 -375 -391 -438 -450 0
-25 -34 -73 -80 -87 -125 -132 -143 -148 -199 -220 -238 -292 -302 -318 -355 -371 -381 -435 -453 0
-25 -34 -73 -80 -87 -125 -132 -143 -148 -199 -220 -223 -244 -298 -302 -371 -375 -429 -450 -453 0
-25 -34 -68 -84 -87 -121 -137 -141 -153 -199 -224 -235 -238 -286 -313 -360 -387 -435 -438 -449 0
-25 -34 -68 -84 -87 -121 -137 -141 -153 -199 -224 -234 -287 -292 -313 -360 -381 -386 -439 -449 0
-25 -34 -68 -84 -87 -121 -137 -141 -153 -199 -224 -234 -286 -307 -312 -361 -366 -387 -439 -449 0
-25 -34 -68 -84 -87 -121 -137 -141 -153 -199 -223 -235 -287 -306 -313 -360 -367 -386 -438 -450 0
-25 -34 -68 -84 -87 -121 -137 -141 -153 -199 -223 -235 -286 -293 -312 -361 -380 -387 -438 -450 0
-25 -34 -68 -84 -87 -121 -137 -141 -153 -199 -223 -234 -239 -287 -312 -361 -386 -434 -439 -450 0
-25 -34 -68 -84 -87 -121 -137 -141 -153 -199 -220 -238 -292 -306 -313 -360 -367 -381 -435 -453 0
-25 -34 -68 -84 -87 -121 -137 -141 -153 -199 -220 -238 -286 -293 -307 -366 -380 -387 -435 -453 0
-25 -34 -68 -84 -87 -121 -137 -141 -153 -199 -220 -234 -239 -292 -307 -366 -381 -434 -439 -453 0
-25 -34 -68 -84 -87 -121 -137 -141 -153 -199 -220 -223 -239 -293 -306 -367 -380 -434 -450 -453 0
-25 -34 -68 -84 -87 -121 -137 -141 -153 -199 -220 -223 -234 -286 -313 -360 -387 -439 -450 -453 0
-25 -34 -68 -84 -87 -121 -137 -141 -153 -199 -219 -239 -293 -307 -312 -361 -366 -380 -434 -454 0
-25 -34 -68 -84 -87 -121 -137 -141 -153 -199 -219 -239 -287 -292 -306 -367 -381 -386 -434 -454 0
-25 -34 -68 -84 -87 -121 -137 -141 -153 -199 -219 -235 -238 -293 -306 -367 -380 -435 -438 -454 0
-25 -34 -68 -84 -87 -121 -137 -141 -153 -199 -219 -224 -238 -292 -307 -366 -381 -435 -449 -454 0
-25 -34 -68 -84 -87 -121 -137 -141 -153 -199 -219 -224 -235 -287 -312 -361 -386 -438 -449 -454 0
-25 -31 -70 -75 -90 -130 -135 -144 -147 -199 -229 -234 -239 -285 -321 -352 -388 -434 -439 -444 0
-25 -31 -70 -75 -90 -130 -135 -144 -147 -199 -224 -234 -285 -301 -317 -356 -372 -388 -439 -449 0
-25 -31 -70 -75 -90 -130 -135 -144 -147 -199 -219 -239 -297 -305 -321 -352 -368 -376 -434 -454 0
-25 -31 -70 -75 -90 -130 -135 -144 -147 -199 -219 -224 -244 -301 -305 -368 -372 -429 -449 -454 0
-25 -31 -69 -76 -90 -129 -136 -143 -148 -199 -229 -235 -238 -285 -321 -352 -388 -435 -438 -444 0
-25 -31 -69 -76 -90 -129 -136 -143 -148 -199 -223 -235 -291 -305 -321 -352 -368 -382 -438 -450 0
-25 -31 -69 -76 -90 -129 -136 -143 -148 -199 -220 -238 -285 -301 -311 -362 -372 -388 -435 -453 0
-25 -31 -69 -76 -90 -129 -136 -143 -148 -199 -220 -223 -244 -301 -305 -368 -372 -429 -450 -453 0
-25 -31 -65 -81 -90 -124 -140 -141 -153 -199 -224 -235 -238 -290 -317 -356 -383 -435 -438 -449 0
-25 -31 -65 -81 -90 -124 -140 -141 -153 -199 -224 -234 -291 -296 -317 -356 -377 -382 -439 -449 0
-25 -31 -65 -81 -90 -124 -140 -141 -153 -199 -224 -234 -290 -311 -316 -357 -362 -383 -439 -449 0
-25 -31 -65 -81 -90 -124 -140 -141 -153 -199 -223 -235 -291 -310 -317 -356 -363 -382 -438 -450 0
-25 -31 -65 -81 -90 -124 -140 -141 -153 -199 -223 -235 -290 -297 -316 -357 -376 -383 -438 -450 0
-25 -31 -65 -81 -90 -124 -140 -141 -153 -199 -223 -234 -239 -291 -316 -357 -382 -434 -439 -450 0
-25 -31 -65 -81 -90 -124 -140 -141 -153 -199 -220 -238 -296 -310 -317 -356 -363 -377 -435 -453 0
-25 -31 -65 -81 -90 -124 -140 -141 -153 -199 -220 -238 -290 -297 -311 -362 -376 -383 -435 -453 0
-25 -31 -65 -81 -90 -124 -140 -141 -153 -199 -220 -234 -239 -296 -311 -362 -377 -434 -439 -453 0
-25 -31 -65 -81 -90 -124 -140 -141 -153 -199 -220 -223 -239 -297 -310 -363 -376 -434 -450 -453 0
-25 -31 -65 -81 -90 -124 -140 -141 -153 -199 -220 -223 -234 -290 -317 -356 -383 -439 -450 -453 0
-25 -31 -65 -81 -90 -124 -140 -141 -153 -199 -219 -239 -297 -311 -316 -357 -362 -376 -434 -454 0
-25 -31 -65 -81 -90 -124 -140 -141 -153 -199 -219 -239 -291 -296 -310 -363 -377 -382 -434 -454 0
-25 -31 -65 -81 -90 -124 -140 -141 -153 -199 -219 -235 -238 -297 -310 -363 -376 -435 -438 -454 0
-25 -31 -65 -81 -90 -124 -140 -141 -153 -199 -219 -224 -238 -296 -311 -362 -377 -435 -449 -454 0
-25 -31 -65 -81 -90 -124 -140 -141 -153 -199 -219 -224 -235 -291 -316 -357 -382 -438 -449 -454 0
-24 -49 -62 -67 -102 -115 -121 -154 -159 -177 -223 -240 -255 -268 -333 -340 -405 -418 -433 -450 0
-24 -49 -62 -67 -102 -115 -121 -154 -159 -177 -223 -236 -272 -286 -333 -340 -387 -401 -437 -450 0
-24 -49 -62 -67 -102 -115 -121 -154 -159 -177 -219 -240 -268 -292 -329 -344 -381 -405 -433 -454 0
-24 -49 -62 -67 -102 -115 -121 -154 -159 -177 -219 -236 -261 -272 -329 -344 -401 -412 -437 -454 0
-24 -47 -64 -67 -100 -117 -121 -154 -157 -179 -225 -238 -255 -268 -333 -340 -405 -418 -435 -448 0
-24 -47 -64 -67 -100 -117 -121 -154 -157 -179 -225 -234 -268 -312 -329 -344 -361 -405 -439 -448 0
-24 -47 -64 -67 -100 -117 -121 -154 -157 -179 -221 -238 -272 -306 -333 -340 -367 -401 -435 -452 0
-24 -47 -64 -67 -100 -117 -121 -154 -157 -179 -221 -234 -261 -272 -329 -344 -401 -412 -439 -452 0
-24 -46 -59 -65 -105 -118 -123 -154 -159 -177 -223 -240 -255 -270 -335 -338 -403 -418 -433 -450 0
-24 -46 -59 -65 -105 -118 -123 -154 -159 -177 -223 -236 -270 -317 -331 -342 -356 -403 -437 -450 0
-24 -46 -59 -65 -105 -118 -123 -154 -159 -177 -219 -240 -274 -311 -335 -338 -362 -399 -433 -454 0
-24 -46 -59 -65 -105 -118 -123 -154 -159 -177 -219 -236 -261 -274 -331 -342 -399 -412 -437 -454 0
-24 -44 -61 -65 -103 -120 -123 -154 -157 -179 -225 -238 -255 -270 -335 -338 -403 -418 -435 -448 0
-24 -44 -61 -65 -103 -120 -123 -154 -157 -179 -225 -234 -274 -291 -335 -338 -382 -399 -439 -448 0
-24 -44 -61 -65 -103 -120 -123 -154 -157 -179 -221 -238 -270 -297 -331 -342 -376 -403 -435 -452 0
-24 -44 -61 -65 -103 -120 -123 -154 -157 -179 -221 -234 -261 -274 -331 -342 -399 -412 -439 -452 0
-24 -42 -53 -84 -96 -107 -138 -141 -170 -184 -221 -240 -248 -276 -324 -349 -397 -425 -433 -452 0
-24 -42 -53 -84 -96 -107 -138 -141 -170 -184 -221 -238 -278 -286 -324 -349 -387 -395 -435 -452 0
-24 -42 -53 -84 -96 -107 -138 -141 -170 -184 -221 -238 -276 -314 -322 -351 -359 -397 -435 -452 0
-24 -42 -53 -84 -96 -107 -138 -141 -170 -184 -219 -240 -278 -312 -324 -349 -361 -395 -433 -454 0
-24 -42 -53 -84 -96 -107 -138 -141 -170 -184 -219 -240 -276 -288 -322 -351 -385 -397 -433 -454 0
-24 -42 -53 -84 -96 -107 -138 -141 -170 -184 -219 -238 -250 -278 -322 -351 -395 -423 -435 -454 0
-24 -42 -53 -84 -96 -107 -138 -141 -170 -184 -216 -248 -286 -312 -324 -349 -361 -387 -425 -457 0
-24 -42 -53 -84 -96 -107 -138 -141 -170 -184 -216 -248 -276 -288 -314 -359 -385 -397 -425 -457 0
-24 -42 -53 -84 -96 -107 -138 -141 -170 -184 -216 -238 -250 -286 -314 -359 -387 -423 -435 -457 0
-24 -42 -53 -84 -96 -107 -138 -141 -170 -184 -216 -219 -250 -288 -312 -361 -385 -423 -454 -457 0
-24 -42 -53 -84 -96 -107 -138 -141 -170 -184 -216 -219 -238 -276 -324 -349 -397 -435 -454 -457 0
-24 -42 -53 -84 -96 -107 -138 -141 -170 -184 -214 -250 -288 -314 -322 -351 -359 -385 -423 -459 0
-24 -42 -53 -84 -96 -107 -138 -141 -170 -184 -214 -250 -278 -286 -312 -361 -387 -395 -423 -459 0
-24 -42 -53 -84 -96 -107 -138 -141 -170 -184 -214 -240 -248 -288 -312 -361 -385 -425 -433 -459 0
-24 -42 -53 -84 -96 -107 -138 -141 -170 -184 -214 -221 -248 -286 -314 -359 -387 -425 -452 -459 0
-24 -42 -53 -84 -96 -107 -138 -141 -170 -184 -214 -221 -240 -278 -322 -351 -395 -433 -452 -459 0
-24 -40 -51 -82 -98 -109 -140 -141 -170 -184 -221 -240 -248 -279 -327 -346 -394 -425 -433 -452 0
-24 -40 -51 -82 -98 -109 -140 -141 -170 -184 -221 -238 -281 -289 -327 -346 -384 -392 -435 -452 0
-24 -40 -51 -82 -98 -109 -140 -141 -170 -184 -221 -238 -279 -317 -325 -348 -356 -394 -435 -452 0
-24 -40 -51 -82 -98 -109 -140 -141 -170 -184 -219 -240 -281 -315 -327 -346 -358 -392 -433 -454 0
-24 -40 -51 -82 -98 -109 -140 -141 -170 -184 -219 -240 -279 -291 -325 -348 -382 -394 -433 -454 0
-24 -40 -51 -82 -98 -109 -140 -141 -170 -184 -219 -238 -250 -281 -325 -348 -392 -423 -435 -454 0
-24 -40 -51 -82 -98 -109 -140 -141 -170 -184 -216 -248 -289 -315 -327 -346 -358 -384 -425 -457 0
-24 -40 -51 -82 -98 -109 -140 -141 -170 -184 -216 -248 -279 -291 -317 -356 -382 -394 -425 -457 0
-24 -40 -51 -82 -98 -109 -140 -141 -170 -184 -216 -238 -250 -289 -317 -356 -384 -423 -435 -457 0
-24 -40 -51 -82 -98 -109 -140 -141 -170 -184 -216 -219 -250 -291 -315 -358 -382 -423 -454 -457 0
-24 -40 -51 -82 -98 -109 -140 -141 -170 -184 -216 -219 -238 -279 -327 -346 -394 -435 -454 -457 0
-24 -40 -51 -82 -98 -109 -140 -141 -170 -184 -214 -250 -291 -317 -325 -348 -356 -382 -423 -459 0
-24 -40 -51 -82 -98 -109 -140 -141 -170 -184 -214 -250 -281 -289 -315 -358 -384 -392 -423 -459 0
-24 -40 -51 -82 -98 -109 -140 -141 -170 -184 -214 -240 -248 -291 -315 -358 -382 -425 -433 -459 0
-24 -40 -51 -82 -98 -109 -140 -141 -170 -184 -214 -221 -248 -289 -317 -356 -384 -425 -452 -459 0
-24 -40 -51 -82 -98 -109 -140 -141 -170 -184 -214 -221 -240 -281 -325 -348 -392 -433 -452 -459 0
-24 -38 -57 -84 -92 -111 -138 -141 -164 -190 -225 -236 -248 -276 -324 -349 -397 -425 -437 -448 0
-24 -38 -57 -84 -92 -111 -138 -141 -164 -190 -225 -234 -278 -292 -324 -349 -381 -395 -439 -448 0
-24 -38 -57 -84 -92 -111 -138 -141 -164 -190 -225 -234 -276 -308 -322 -351 -365 -397 -439 -448 0
-24 -38 -57 -84 -92 -111 -138 -141 -164 -190 -223 -236 -278 -306 -324 -349 -367 -395 -437 -450 0
-24 -38 -57 -84 -92 -111 -138 -141 -164 -190 -223 -236 -276 -294 -322 -351 -379 -397 -437 -450 0
-24 -38 -57 -84 -92 -111 -138 -141 -164 -190 -223 -234 -250 -278 -322 -351 -395 -423 -439 -450 0
-24 -38 -57 -84 -92 -111 -138 -141 -164 -190 -216 -248 -292 -306 -324 -349 -367 -381 -425 -457 0
-24 -38 -57 -84 -92 -111 -138 -141 -164 -190 -216 -248 -276 -294 -308 -365 -379 -397 -425 -457 0
-24 -38 -57 -84 -92 -111 -138 -141 -164 -190 -216 -234 -250 -292 -308 -365 -381 -423 -439 -457 0
-24 -38 -57 -84 -92 -111 -138 -141 -164 -190 -216 -223 -250 -294 -306 -367 -379 -423 -450 -457 0
-24 -38 -57 -84 -92 -111 -138 -141 -164 -190 -216 -223 -234 -276 -324 -349 -397 -439 -450 -457 0
-24 -38 -57 -84 -92 -111 -138 -141 -164 -190 -214 -250 -294 -308 -322 -351 -365 -379 -423 -459 0
-24 -38 -57 -84 -92 -111 -138 -141 -164 -190 -214 -250 -278 -292 -306 -367 -381 -395 -423 -459 0
-24 -38 -57 -84 -92 -111 -138 -141 -164 -190 -214 -236 -248 -294 -306 -367 -379 -425 -437 -459 0
-24 -38 -57 -84 -92 -111 -138 -141 -164 -190 -214 -225 -248 -292 -308 -365 -381 -425 -448 -459 0
-24 -38 -57 -84 -92 -111 -138 -141 -164 -190 -214 -225 -236 -278 -322 -351 -395 -437 -448 -459 0
-24 -36 -55 -82 -94 -113 -140 -141 -164 -190 -225 -236 -248 -279 -327 -346 -394 -425 -437 -448 0
-24 -36 -55 -82 -94 -113 -140 -141 -164 -190 -225 -234 -281 -295 -327 -346 -378 -392 -439 -448 0
-24 -36 -55 -82 -94 -113 -140 -141 -164 -190 -225 -234 -279 -311 -325 -348 -362 -394 -439 -448 0
-24 -36 -55 -82 -94 -113 -140 -141 -164 -190 -223 -236 -281 -309 -327 -346 -364 -392 -437 -450 0
-24 -36 -55 -82 -94 -113 -140 -141 -164 -190 -223 -236 -279 -297 -325 -348 -376 -394 -437 -450 0
-24 -36 -55 -82 -94 -113 -140 -141 -164 -190 -223 -234 -250 -281 -325 -348 -392 -423 -439 -450 0
-24 -36 -55 -82 -94 -113 -140 -141 -164 -190 -216 -248 -295 -309 -327 -346 -364 -378 -425 -457 0
-24 -36 -55 -82 -94 -113 -140 -141 -164 -190 -216 -248 -279 -297 -311 -362 -376 -394 -425 -457 0
-24 -36 -55 -82 -94 -113 -140 -141 -164 -190 -216 -234 -250 -295 -311 -362 -378 -423 -439 -457 0
-24 -36 -55 -82 -94 -113 -140 -141 -164 -190 -216 -223 -250 -297 -309 -364 -376 -423 -450 -457 0
-24 -36 -55 -82 -94 -113 -140 -141 -164 -190 -216 -223 -234 -279 -327 -346 -394 -439 -450 -457 0
-24 -36 -55 -82 -94 -113 -140 -141 -164 -190 -214 -250 -297 -311 -325 -348 -362 -376 -423 -459 0
-24 -36 -55 -82 -94 -113 -140 -141 -164 -190 -214 -250 -281 -295 -309 -364 -378 -392 -423 -459 0
-24 -36 -55 -82 -94 -113 -140 -141 -164 -190 -214 -236 -248 -297 -309 -364 -376 -425 -437 -459 0
-24 -36 -55 -82 -94 -113 -140 -141 -164 -190 -214 -225 -248 -295 -311 -362 -378 -425 -448 -459 0
-24 -36 -55 -82 -94 -113 -140 -141 -164 -190 -214 -225 -236 -281 -325 -348 -392 -437 -448 -459 0
-24 -33 -74 -78 -87 -127 -131 -145 -147 -200 -230 -234 -240 -282 -319 -354 -391 -433 -439 -443 0
-24 -33 -74 -78 -87 -127 -131 -145 -147 -200 -225 -234 -286 -302 -319 -354 -371 -387 -439 -448 0
-24 -33 -74 -78 -87 -127 -131 -145 -147 -200 -219 -240 -282 -299 -306 -367 -374 -391 -433 -454 0
-24 -33 -74 -78 -87 -127 -131 -145 -147 -200 -219 -225 -245 -299 -302 -371 -374 -428 -448 -454 0
-24 -33 -72 -80 -87 -125 -133 -143 -149 -200 -230 -236 -238 -282 -319 -354 -391 -435 -437 -443 0
-24 -33 -72 -80 -87 -125 -133 -143 -149 -200 -223 -236 -282 -299 -312 -361 -374 -391 -437 -450 0
-24 -33 -72 -80 -87 -125 -133 -143 -149 -200 -221 -238 -292 -302 -319 -354 -371 -381 -435 -452 0
-24 -33 -72 -80 -87 -125 -133 -143 -149 -200 -221 -223 -245 -299 -302 -371 -374 -428 -450 -452 0
-24 -33 -67 -84 -87 -121 -138 -141 -154 -200 -225 -236 -238 -286 -314 -359 -387 -435 -437 -448 0
-24 -33 -67 -84 -87 -121 -138 -141 -154 -200 -225 -234 -288 -292 -314 -359 -381 -385 -439 -448 0
-24 -33 -67 -84 -87 -121 -138 -141 -154 -200 -225 -234 -286 -308 -312 -361 -365 -387 -439 -448 0
-24 -33 -67 -84 -87 -121 -138 -141 -154 -200 -223 -236 -288 -306 -314 -359 -367 -385 -437 -450 0
-24 -33 -67 -84 -87 -121 -138 -141 -154 -200 -223 -236 -286 -294 -312 -361 -379 -387 -437 -450 0
-24 -33 -67 -84 -87 -121 -138 -141 -154 -200 -223 -234 -240 -288 -312 -361 -385 -433 -439 -450 0
-24 -33 -67 -84 -87 -121 -138 -141 -154 -200 -221 -238 -292 -306 -314 -359 -367 -381 -435 -452 0
-24 -33 -67 -84 -87 -121 -138 -141 -154 -200 -221 -238 -286 -294 -308 -365 -379 -387 -435 -452 0
-24 -33 -67 -84 -87 -121 -138 -141 -154 -200 -221 -234 -240 -292 -308 -365 -381 -433 -439 -452 0
-24 -33 -67 -84 -87 -121 -138 -141 -154 -200 -221 -223 -240 -294 -306 -367 -379 -433 -450 -452 0
-24 -33 -67 -84 -87 -121 -138 -141 -154 -200 -221 -223 -234 -286 -314 -359 -387 -439 -450 -452 0
-24 -33 -67 -84 -87 -121 -138 -141 -154 -200 -219 -240 -294 -308 -312 -361 -365 -379 -433 -454 0
-24 -33 -67 -84 -87 -121 -138 -141 -154 -200 -219 -240 -288 -292 -306 -367 -381 -385 -433 -454 0
-24 -33 -67 -84 -87 -121 -138 -141 -154 -200 -219 -236 -238 -294 -306 -367 -379 -435 -437 -454 0
-24 -33 -67 -84 -87 -121 -138 -141 -154 -200 -219 -225 -238 -292 -308 -365 -381 -435 -448 -454 0
-24 -33 -67 -84 -87 -121 -138 -141 -154 -200 -219 -225 -236 -288 -312 -361 -385 -437 -448 -454 0
-24 -31 -71 -75 -89 -130 -134 -145 -147 -200 -230 -234 -240 -284 -321 -352 -389 -433 -439 -443 0
-24 -31 -71 -75 -89 -130 -134 -145 -147 -200 -225 -234 -284 -301 -317 -356 -372 -389 -439 -448 0
-24 -31 -71 -75 -89 -130 -134 -145 -147 -200 -219 -240 -297 -304 -321 -352 -369 -376 -433 -454 0
-24 -31 -71 -75 -89 -130 -134 -145 -147 -200 -219 -225 -245 -301 -304 -369 -372 -428 -448 -454 0
-24 -31 -69 -77 -89 -128 -136 -143 -149 -200 -230 -236 -238 -284 -321 -352 -389 -435 -437 -443 0
-24 -31 -69 -77 -89 -128 -136 -143 -149 -200 -223 -236 -291 -304 -321 -352 -369 -382 -437 -450 0
-24 -31 -69 -77 -89 -128 -136 -143 -149 -200 -221 -238 -284 -301 -311 -362 -372 -389 -435 -452 0
-24 -31 -69 -77 -89 -128 -136 -143 -149 -200 -221 -223 -245 -301 -304 -369 -372 -428 -450 -452 0
-24 -31 -65 -82 -89 -123 -140 -141 -154 -200 -225 -236 -238 -289 -317 -356 -384 -435 -437 -448 0
-24 -31 -65 -82 -89 -123 -140 -141 -154 -200 -225 -234 -291 -295 -317 -356 -378 -382 -439 -448 0
-24 -31 -65 -82 -89 -123 -140 -141 -154 -200 -225 -234 -289 -311 -315 -358 -362 -384 -439 -448 0
-24 -31 -65 -82 -89 -123 -140 -141 -154 -200 -223 -236 -291 -309 -317 -356 -364 -382 -437 -450 0
-24 -31 -65 -82 -89 -123 -140 -141 -154 -200 -223 -236 -289 -297 -315 -358 -376 -384 -437 -450 0
-24 -31 -65 -82 -89 -123 -140 -141 -154 -200 -223 -234 -240 -291 -315 -358 -382 -433 -439 -450 0
-24 -31 -65 -82 -89 -123 -140 -141 -154 -200 -221 -238 -295 -309 -317 -356 -364 -378 -435 -452 0
-24 -31 -65 -82 -89 -123 -140 -141 -154 -200 -221 -238 -289 -297 -311 -362 -376 -384 -435 -452 0
-24 -31 -65 -82 -89 -123 -140 -141 -154 -200 -221 -234 -240 -295 -311 -362 -378 -433 -439 -452 0
-24 -31 -65 -82 -89 -123 -140 -141 -154 -200 -221 -223 -240 -297 -309 -364 -376 -433 -450 -452 0
-24 -31 -65 -82 -89 -123 -140 -141 -154 -200 -221 -223 -234 -289 -317 -356 -384 -439 -450 -452 0
-24 -31 -65 -82 -89 -123 -140 -141 -154 -200 -219 -240 -297 -311 -315 -358 -362 -376 -433 -454 0
-24 -31 -65 -82 -89 -123 -140 -141 -154 -200 -219 -240 -291 -295 -309 -364 -378 -382 -433 -454 0
-24 -31 -65 -82 -89 -123 -140 -141 -154 -200 -219 -236 -238 -297 -309 -364 -376 -435 -437 -454 0
-24 -31 -65 -82 -89 -123 -140 -141 -154 -200 -219 -225 -238 -295 -311 -362 -378 -435 -448 -454 0
-24 -31 -65 -82 -89 -123 -140 -141 -154 -200 -219 -225 -236 -291 -315 -358 -382 -437 -448 -454 0
-23 -48 -62 -66 -102 -116 -121 -155 -159 -178 -224 -240 -256 -268 -334 -339 -405 -417 -433 -449 0
-23 -48 -62 -66 -102 -116 -121 -155 -159 -178 -224 -236 -272 -287 -334 -339 -386 -401 -437 -449 0
-23 -48 -62 -66 -102 -116 -121 -155 -159 -178 -224 -236 -268 -314 -330 -343 -359 -405 -437 -449 0
-23 -48 -62 -66 -102 -116 -121 -155 -159 -178 -220 -240 -272 -308 -334 -339 -365 -401 -433 -453 0
-23 -48 -62 -66 -102 -116 -121 -155 -159 -178 -220 -240 -268 -293 -330 -343 -380 -405 -433 -453 0
-23 -48 -62 -66 -102 -116 -121 -155 -159 -178 -220 -236 -262 -272 -330 -343 -401 -411 -437 -453 0
-23 -48 -62 -66 -102 -116 -121 -155 -159 -178 -212 -256 -287 -308 -334 -339 -365 -386 -417 -461 0
-23 -48 -62 -66 -102 -116 -121 -155 -159 -178 -212 -256 -268 -293 -314 -359 -380 -405 -417 -461 0
-23 -48 -62 -66 -102 -116 -121 -155 -159 -178 -212 -236 -262 -287 -314 -359 -386 -411 -437 -461 0
-23 -48 -62 -66 -102 -116 -121 -155 -159 -178 -212 -220 -262 -293 -308 -365 -380 -411 -453 -461 0
-23 -48 -62 -66 -102 -116 -121 -155 -159 -178 -212 -220 -236 -268 -334 -339 -405 -437 -453 -461 0
-23 -48 -62 -66 -102 -116 -121 -155 -159 -178 -211 -262 -293 -314 -330 -343 -359 -380 -411 -462 0
-23 -48 -62 -66 -102 -116 -121 -155 -159 -178 -211 -262 -272 -287 -308 -365 -386 -401 -411 -462 0
-23 -48 -62 -66 -102 -116 -121 -155 -159 -178 -211 -240 -256 -293 -308 -365 -380 -417 -433 -462 0
-23 -48 -62 -66 -102 -116 -121 -155 -159 -178 -211 -224 -256 -287 -314 -359 -386 -417 -449 -462 0
-23 -48 -62 -66 -102 -116 -121 -155 -159 -178 -211 -224 -240 -272 -330 -343 -401 -433 -449 -462 0
-23 -48 -56 -72 -102 -111 -126 -149 -165 -178 -224 -246 -250 -268 -334 -339 -405 -423 -427 -449 0
-23 -48 -56 -72 -102 -111 -126 -149 -165 -178 -224 -236 -277 -282 -334 -339 -391 -396 -437 -449 0
-23 -48 -56 -72 -102 -111 -126 -149 -165 -178 -224 -236 -268 -320 -324 -349 -353 -405 -437 -449 0
-23 -48 -56 -72 -102 -111 -126 -149 -165 -178 -217 -246 -277 -308 -334 -339 -365 -396 -427 -456 0
-23 -48 -56 -72 -102 -111 -126 -149 -165 -178 -217 -246 -268 -293 -324 -349 -380 -405 -427 -456 0
-23 -48 -56 -72 -102 -111 -126 -149 -165 -178 -217 -236 -262 -277 -324 -349 -396 -411 -437 -456 0
-23 -48 -56 -72 -102 -111 -126 -149 -165 -178 -215 -250 -282 -308 -334 -339 -365 -391 -423 -458 0
-23 -48 -56 -72 -102 -111 -126 -149 -165 -178 -215 -250 -268 -293 -320 -353 -380 -405 -423 -458 0
-23 -48 -56 -72 -102 -111 -126 -149 -165 -178 -215 -236 -262 -282 -320 -353 -391 -411 -437 -458 0
-23 -48 -56 -72 -102 -111 -126 -149 -165 -178 -215 -217 -262 -293 -308 -365 -380 -411 -456 -458 0
-23 -48 -56 -72 -102 -111 -126 -149 -165 -178 -215 -217 -236 -268 -334 -339 -405 -437 -456 -458 0
-23 -48 -56 -72 -102 -111 -126 -149 -165 -178 -211 -262 -293 -320 -324 -349 -353 -380 -411 -462 0
-23 -48 -56 -72 -102 -111 -126 -149 -165 -178 -211 -262 -277 -282 -308 -365 -391 -396 -411 -462 0
-23 -48 -56 -72 -102 -111 -126 -149 -165 -178 -211 -246 -250 -293 -308 -365 -380 -423 -427 -462 0
-23 -48 -56 -72 -102 -111 -126 -149 -165 -178 -211 -224 -250 -282 -320 -353 -391 -423 -449 -462 0
-23 -48 -56 -72 -102 -111 -126 -149 -165 -178 -211 -224 -246 -277 -324 -349 -396 -427 -449 -462 0
-23 -48 -52 -78 -102 -107 -132 -145 -171 -178 -220 -246 -250 -272 -330 -343 -401 -423 -427 -453 0
-23 -48 -52 -78 -102 -107 -132 -145 -171 -178 -220 -240 -277 -282 -330 -343 -391 -396 -433 -453 0
-23 -48 -52 -78 -102 -107 -132 -145 -171 -178 -220 -240 -272 -320 -324 -349 -353 -401 -433 -453 0
-23 -48 -52 -78 -102 -107 -132 -145 -171 -178 -217 -246 -277 -314 -330 -343 -359 -396 -427 -456 0
-23 -48 -52 -78 -102 -107 -132 -145 -171 -178 -217 -246 -272 -287 -324 -349 -386 -401 -427 -456 0
-23 -48 -52 -78 -102 -107 -132 -145 -171 -178 -217 -240 -256 -277 -324 -349 -396 -417 -433 -456 0
-23 -48 -52 -78 -102 -107 -132 -145 -171 -178 -215 -250 -282 -314 -330 -343 -359 -391 -423 -458 0
-23 -48 -52 -78 -102 -107 -132 -145 -171 -178 -215 -250 -272 -287 -320 -353 -386 -401 -423 -458 0
-23 -48 -52 -78 -102 -107 -132 -145 -171 -178 -215 -240 -256 -282 -320 -353 -391 -417 -433 -458 0
-23 -48 -52 -78 -102 -107 -132 -145 -171 -178 -215 -217 -256 -287 -314 -359 -386 -417 -456 -458 0
-23 -48 -52 -78 -102 -107 -132 -145 -171 -178 -215 -217 -240 -272 -330 -343 -401 -433 -456 -458 0
-23 -48 -52 -78 -102 -107 -132 -145 -171 -178 -212 -256 -287 -320 -324 -349 -353 -386 -417 -461 0
-23 -48 -52 -78 -102 -107 -132 -145 -171 -178 -212 -256 -277 -282 -314 -359 -391 -396 -417 -461 0
-23 -48 -52 -78 -102 -107 -132 -145 -171 -178 -212 -246 -250 -287 -314 -359 -386 -423 -427 -461 0
-23 -48 -52 -78 -102 -107 -132 -145 -171 -178 -212 -220 -250 -282 -320 -353 -391 -423 -453 -461 0
-23 -48 -52 -78 -102 -107 -132 -145 -171 -178 -212 -220 -246 -277 -324 -349 -396 -427 -453 -461 0
-23 -47 -63 -66 -101 -117 -121 -155 -158 -179 -225 -239 -256 -268 -334 -339 -405 -417 -434 -448 0
-23 -47 -63 -66 -101 -117 -121 -155 -158 -179 -225 -235 -272 -288 -334 -339 -385 -401 -438 -448 0
-23 -47 -63 -66 -101 -117 -121 -155 -158 -179 -225 -235 -268 -313 -330 -343 -360 -405 -438 -448 0
-23 -47 -63 -66 -101 -117 -121 -155 -158 -179 -221 -239 -272 -307 -334 -339 -366 -401 -434 -452 0
-23 -47 -63 -66 -101 -117 -121 -155 -158 -179 -221 -239 -268 -294 -330 -343 -379 -405 -434 -452 0
-23 -47 -63 -66 -101 -117 -121 -155 -158 -179 -221 -235 -262 -272 -330 -343 -401 -411 -438 -452 0
-23 -47 -63 -66 -101 -117 -121 -155 -158 -179 -212 -256 -288 -307 -334 -339 -366 -385 -417 -461 0
-23 -47 -63 -66 -101 -117 -121 -155 -158 -179 -212 -256 -268 -294 -313 -360 -379 -405 -417 -461 0
-23 -47 -63 -66 -101 -117 -121 -155 -158 -179 -212 -235 -262 -288 -313 -360 -385 -411 -438 -461 0
-23 -47 -63 -66 -101 -117 -121 -155 -158 -179 -212 -221 -262 -294 -307 -366 -379 -411 -452 -461 0
-23 -47 -63 -66 -101 -117 -121 -155 -158 -179 -212 -221 -235 -268 -334 -339 -405 -438 -452 -461 0
-23 -47 -63 -66 -101 -117 -121 -155 -158 -179 -211 -262 -294 -313 -330 -343 -360 -379 -411 -462 0
-23 -47 -63 -66 -101 -117 -121 -155 -158 -179 -211 -262 -272 -288 -307 -366 -385 -401 -411 -462 0
-23 -47 -63 -66 -101 -117 -121 -155 -158 -179 -211 -239 -256 -294 -307 -366 -379 -417 -434 -462 0
-23 -47 -63 -66 -101 -117 -121 -155 -158 -179 -211 -225 -256 -288 -313 -360 -385 -417 -448 -462 0
-23 -47 -63 -66 -101 -117 -121 -155 -158 -179 -211 -225 -239 -272 -330 -343 -401 -434 -448 -462 0
-23 -47 -56 -73 -101 -111 -127 -148 -165 -179 -225 -246 -249 -268 -334 -339 -405 -424 -427 -448 0
-23 -47 -56 -73 -101 -111 -127 -148 -165 -179 -225 -235 -278 -282 -334 -339 -391 -395 -438 -448 0
-23 -47 -56 -73 -101 -111 -127 -148 -165 -179 -225 -235 -268 -320 -323 -350 -353 -405 -438 -448 0
-23 -47 -56 -73 -101 -111 -127 -148 -165 -179 -217 -246 -278 -307 -334 -339 -366 -395 -427 -456 0
-23 -47 -56 -73 -101 -111 -127 -148 -165 -179 -217 -246 -268 -294 -323 -350 -379 -405 -427 -456 0
-23 -47 -56 -73 -101 -111 -127 -148 -165 -179 -217 -235 -262 -278 -323 -350 -395 -411 -438 -456 0
-23 -47 -56 -73 -101 -111 -127 -148 -165 -179 -216 -249 -282 -307 -334 -339 -366 -391 -424 -457 0
-23 -47 -56 -73 -101 -111 -127 -148 -165 -179 -216 -249 -268 -294 -320 -353 -379 -405 -424 -457 0
-23 -47 -56 -73 -101 -111 -127 -148 -165 -179 -216 -235 -262 -282 -320 -353 -391 -411 -438 -457 0
-23 -47 -56 -73 -101 -111 -127 -148 -165 -179 -216 -217 -262 -294 -307 -366 -379 -411 -456 -457 0
-23 -47 -56 -73 -101 -111 -127 -148 -165 -179 -216 -217 -235 -268 -334 -339 -405 -438 -456 -457 0
-23 -47 -56 -73 -101 -111 -127 -148 -165 -179 -211 -262 -294 -320 -323 -350 -353 -379 -411 -462 0
-23 -47 -56 -73 -101 -111 -127 -148 -165 -179 -211 -262 -278 -282 -307 -366 -391 -395 -411 -462 0
-23 -47 -56 -73 -101 -111 -127 -148 -165 -179 -211 -246 -249 -294 -307 -366 -379 -424 -427 -462 0
-23 -47 -56 -73 -101 -111 -127 -148 -165 -179 -211 -225 -249 -282 -320 -353 -391 -424 -448 -462 0
-23 -47 -56 -73 -101 -111 -127 -148 -165 -179 -211 -225 -246 -278 -323 -350 -395 -427 -448 -462 0
-23 -47 -52 -79 -101 -107 -133 -144 -171 -179 -221 -246 -249 -272 -330 -343 -401 -424 -427 -452 0
-23 -47 -52 -79 -101 -107 -133 -144 -171 -179 -221 -239 -278 -282 -330 -343 -391 -395 -434 -452 0
-23 -47 -52 -79 -101 -107 -133 -144 -171 -179 -221 -239 -272 -320 -323 -350 -353 -401 -434 -452 0
-23 -47 -52 -79 -101 -107 -133 -144 -171 -179 -217 -246 -278 -313 -330 -343 -360 -395 -427 -456 0
-23 -47 -52 -79 -101 -107 -133 -144 -171 -179 -217 -246 -272 -288 -323 -350 -385 -401 -427 -456 0
-23 -47 -52 -79 -101 -107 -133 -144 -171 -179 -217 -239 -256 -278 -323 -350 -395 -417 -434 -456 0
-23 -47 -52 -79 -101 -107 -133 -144 -171 -179 -216 -249 -282 -313 -330 -343 -360 -391 -424 -457 0
-23 -47 -52 -79 -101 -107 -133 -144 -171 -179 -216 -249 -272 -288 -320 -353 -385 -401 -424 -457 0
-23 -47 -52 -79 -101 -107 -133 -144 -171 -179 -216 -239 -256 -282 -320 -353 -391 -417 -434 -457 0
-23 -47 -52 -79 -101 -107 -133 -144 -171 -179 -216 -217 -256 -288 -313 -360 -385 -417 -456 -457 0
-23 -47 -52 -79 -101 -107 -133 -144 -171 -179 -216 -217 -239 -272 -330 -343 -401 -434 -456 -457 0
-23 -47 -52 -79 -101 -107 -133 -144 -171 -179 -212 -256 -288 -320 -323 -350 -353 -385 -417 -461 0
-23 -47 -52 -79 -101 -107 -133 -144 -171 -179 -212 -256 -278 -282 -313 -360 -391 -395 -417 -461 0
-23 -47 -52 -79 -101 -107 -133 -144 -171 -179 -212 -246 -249 -288 -313 -360 -385 -424 -427 -461 0
-23 -47 -52 -79 -101 -107 -133 -144 -171 -179 -212 -221 -249 -282 -320 -353 -391 -424 -452 -461 0
-23 -47 -52 -79 -101 -107 -133 -144 -171 -179 -212 -221 -246 -278 -323 -350 -395 -427 -452 -461 0
-23 -46 -60 -65 -104 -118 -122 -155 -159 -178 -224 -240 -256 -269 -335 -338 -404 -417 -433 -449 0
-23 -46 -60 -65 -104 -118 -122 -155 -159 -178 -224 -236 -273 -289 -335 -338 -384 -400 -437 -449 0
-23 -46 -60 -65 -104 -118 -122 -155 -159 -178 -224 -236 -269 -316 -331 -342 -357 -404 -437 -449 0
-23 -46 -60 -65 -104 -118 -122 -155 -159 -178 -220 -240 -273 -310 -335 -338 -363 -400 -433 -453 0
-23 -46 -60 -65 -104 -118 -122 -155 -159 -178 -220 -240 -269 -295 -331 -342 -378 -404 -433 -453 0
-23 -46 -60 -65 -104 -118 -122 -155 -159 -178 -220 -236 -262 -273 -331 -342 -400 -411 -437 -453 0
-23 -46 -60 -65 -104 -118 -122 -155 -159 -178 -212 -256 -289 -310 -335 -338 -363 -384 -417 -461 0
-23 -46 -60 -65 -104 -118 -122 -155 -159 -178 -212 -256 -269 -295 -316 -357 -378 -404 -417 -461 0
-23 -46 -60 -65 -104 -118 -122 -155 -159 -178 -212 -236 -262 -289 -316 -357 -384 -411 -437 -461 0
-23 -46 -60 -65 -104 -118 -122 -155 -159 -178 -212 -220 -262 -295 -310 -363 -378 -411 -453 -461 0
-23 -46 -60 -65 -104 -118 -122 -155 -159 -178 -212 -220 -236 -269 -335 -338 -404 -437 -453 -461 0
-23 -46 -60 -65 -104 -118 -122 -155 -159 -178 -211 -262 -295 -316 -331 -342 -357 -378 -411 -462 0
-23 -46 -60 -65 -104 -118 -122 -155 -159 -178 -211 -262 -273 -289 -310 -363 -384 -400 -411 -462 0
-23 -46 -60 -65 -104 -118 -122 -155 -159 -178 -211 -240 -256 -295 -310 -363 -378 -417 -433 -462 0
-23 -46 -60 -65 -104 -118 -122 -155 -159 -178 -211 -224 -256 -289 -316 -357 -384 -417 -449 -462 0
-23 -46 -60 -65 -104 -118 -122 -155 -159 -178 -211 -224 -240 -273 -331 -342 -400 -433 -449 -462 0
-23 -46 -55 -70 -104 -112 -128 -149 -165 -178 -224 -246 -250 -269 -335 -338 -404 -423 -427 -449 0
-23 -46 -55 -70 -104 -112 -128 -149 -165 -178 -224 -236 -279 -283 -335 -338 -390 -394 -437 -449 0
-23 -46 -55 -70 -104 -112 -128 -149 -165 -178 -224 -236 -269 -321 -326 -347 -352 -404 -437 -449 0
-23 -46 -55 -70 -104 -112 -128 -149 -165 -178 -217 -246 -279 -310 -335 -338 -363 -394 -427 -456 0
-23 -46 -55 -70 -104 -112 -128 -149 -165 -178 -217 -246 -269 -295 -326 -347 -378 -404 -427 -456 0
-23 -46 -55 -70 -104 -112 -128 -149 -165 -178 -217 -236 -262 -279 -326 -347 -394 -411 -437 -456 0
-23 -46 -55 -70 -104 -112 -128 -149 -165 -178 -215 -250 -283 -310 -335 -338 -363 -390 -423 -458 0
-23 -46 -55 -70 -104 -112 -128 -149 -165 -178 -215 -250 -269 -295 -321 -352 -378 -404 -423 -458 0
-23 -46 -55 -70 -104 -112 -128 -149 -165 -178 -215 -236 -262 -283 -321 -352 -390 -411 -437 -458 0
-23 -46 -55 -70 -104 -112 -128 -149 -165 -178 -215 -217 -262 -295 -310 -363 -378 -411 -456 -458 0
-23 -46 -55 -70 -104 -112 -128 -149 -165 -178 -215 -217 -236 -269 -335 -338 -404 -437 -456 -458 0
-23 -46 -55 -70 -104 -112 -128 -149 -165 -178 -211 -262 -295 -321 -326 -347 -352 -378 -411 -462 0
-23 -46 -55 -70 -104 -112 -128 -149 -165 -178 -211 -262 -279 -283 -310 -363 -390 -394 -411 -462 0
-23 -46 -55 -70 -104 -112 -128 -149 -165 -178 -211 -246 -250 -295 -310 -363 -378 -423 -427 -462 0
-23 -46 -55 -70 -104 -112 -128 -149 -165 -178 -211 -224 -250 -283 -321 -352 -390 -423 -449 -462 0
-23 -46 -55 -70 -104 -112 -128 -149 -165 -178 -211 -224 -246 -279 -326 -347 -394 -427 -449 -462 0
-23 -46 -51 -76 -104 -108 -134 -145 -171 -178 -220 -246 -250 -273 -331 -342 -400 -423 -427 -453 0
-23 -46 -51 -76 -104 -108 -134 -145 -171 -178 -220 -240 -279 -283 -331 -342 -390 -394 -433 -453 0
-23 -46 -51 -76 -104 -108 -134 -145 -171 -178 -220 -240 -273 -321 -326 -347 -352 -400 -433 -453 0
-23 -46 -51 -76 -104 -108 -134 -145 -171 -178 -217 -246 -279 -316 -331 -342 -357 -394 -427 -456 0
-23 -46 -51 -76 -104 -108 -134 -145 -171 -178 -217 -246 -273 -289 -326 -347 -384 -400 -427 -456 0
-23 -46 -51 -76 -104 -108 -134 -145 -171 -178 -217 -240 -256 -279 -326 -347 -394 -417 -433 -456 0
-23 -46 -51 -76 -104 -108 -134 -145 -171 -178 -215 -250 -283 -316 -331 -342 -357 -390 -423 -458 0
-23 -46 -51 -76 -104 -108 -134 -145 -171 -178 -215 -250 -273 -289 -321 -352 -384 -400 -423 -458 0
-23 -46 -51 -76 -104 -108 -134 -145 -171 -178 -215 -240 -256 -283 -321 -352 -390 -417 -433 -458 0
-23 -46 -51 -76 -104 -108 -134 -145 -171 -178 -215 -217 -256 -289 -316 -357 -384 -417 -456 -458 0
-23 -46 -51 -76 -104 -108 -134 -145 -171 -178 -215 -217 -240 -273 -331 -342 -400 -433 -456 -458 0
-23 -46 -51 -76 -104 -108 -134 -145 -171 -178 -212 -256 -289 -321 -326 -347 -352 -384 -417 -461 0
-23 -46 -51 -76 -104 -108 -134 -145 -171 -178 -212 -256 -279 -283 -316 -357 -390 -394 -417 -461 0
-23 -46 -51 -76 -104 -108 -134 -145 -171 -178 -212 -246 -250 -289 -316 -357 -384 -423 -427 -461 0
-23 -46 -51 -76 -104 -108 -134 -145 -171 -178 -212 -220 -250 -283 -321 -352 -390 -423 -453 -461 0
-23 -46 -51 -76 -104 -108 -134 -145 -171 -178 -212 -220 -246 -279 -326 -347 -394 -427 -453 -461 0
-23 -45 -61 -65 -103 -119 -122 -155 -158 -179 -225 -239 -256 -269 -335 -338 -404 -417 -434 -448 0
-23 -45 -61 -65 -103 -119 -122 -155 -158 -179 -225 -235 -273 -290 -335 -338 -383 -400 -438 -448 0
-23 -45 -61 -65 -103 -119 -122 -155 -158 -179 -225 -235 -269 -315 -331 -342 -358 -404 -438 -448 0
-23 -45 -61 -65 -103 -119 -122 -155 -158 -179 -221 -239 -273 -309 -335 -338 -364 -400 -434 -452 0
-23 -45 -61 -65 -103 -119 -122 -155 -158 -179 -221 -239 -269 -296 -331 -342 -377 -404 -434 -452 0
-23 -45 -61 -65 -103 -119 -122 -155 -158 -179 -221 -235 -262 -273 -331 -342 -400 -411 -438 -452 0
-23 -45 -61 -65 -103 -119 -122 -155 -158 -179 -212 -256 -290 -309 -335 -338 -364 -383 -417 -461 0
-23 -45 -61 -65 -103 -119 -122 -155 -158 -179 -212 -256 -269 -296 -315 -358 -377 -404 -417 -461 0
-23 -45 -61 -65 -103 -119 -122 -155 -158 -179 -212 -235 -262 -290 -315 -358 -383 -411 -438 -461 0
-23 -45 -61 -65 -103 -119 -122 -155 -158 -179 -212 -221 -262 -296 -309 -364 -377 -411 -452 -461 0
-23 -45 -61 -65 -103 -119 -122 -155 -158 -179 -212 -221 -235 -269 -335 -338 -404 -438 -452 -461 0
-23 -45 -61 -65 -103 -119 -122 -155 -158 -179 -211 -262 -296 -315 -331 -342 -358 -377 -411 -462 0
-23 -45 -61 -65 -103 -119 -122 -155 -158 -179 -211 -262 -273 -290 -309 -364 -383 -400 -411 -462 0
-23 -45 -61 -65 -103 -119 -122 -155 -158 -179 -211 -239 -256 -296 -309 -364 -377 -417 -434 -462 0
-23 -45 -61 -65 -103 -119 -122 -155 -158 -179 -211 -225 -256 -290 -315 -358 -383 -417 -448 -462 0
-23 -45 -61 -65 -103 -119 -122 -155 -158 -179 -211 -225 -239 -273 -331 -342 -400 -434 -448 -462 0
-23 -45 -55 -71 -103 -112 -129 -148 -165 -179 -225 -246 -249 -269 -335 -338 -404 -424 -427 -448 0
-23 -45 -55 -71 -103 -112 -129 -148 -165 -179 -225 -235 -280 -283 -335 -338 -390 -393 -438 -448 0
-23 -45 -55 -71 -103 -112 -129 -148 -165 -179 -225 -235 -269 -321 -325 -348 -352 -404 -438 -448 0
-23 -45 -55 -71 -103 -112 -129 -148 -165 -179 -217 -246 -280 -309 -335 -338 -364 -393 -427 -456 0
-23 -45 -55 -71 -103 -112 -129 -148 -165 -179 -217 -246 -269 -296 -325 -348 -377 -404 -427 -456 0
-23 -45 -55 -71 -103 -112 -129 -148 -165 -179 -217 -235 -262 -280 -325 -348 -393 -411 -438 -456 0
-23 -45 -55 -71 -103 -112 -129 -148 -165 -179 -216 -249 -283 -309 -335 -338 -364 -390 -424 -457 0
-23 -45 -55 -71 -103 -112 -129 -148 -165 -179 -216 -249 -269 -296 -321 -352 -377 -404 -424 -457 0
-23 -45 -55 -71 -103 -112 -129 -148 -165 -179 -216 -235 -262 -283 -321 -352 -390 -411 -438 -457 0
-23 -45 -55 -71 -103 -112 -129 -148 -165 -179 -216 -217 -262 -296 -309 -364 -377 -411 -456 -457 0
-23 -45 -55 -71 -103 -112 -129 -148 -165 -179 -216 -217 -235 -269 -335 -338 -404 -438 -456 -457 0
-23 -45 -55 -71 -103 -112 -129 -148 -165 -179 -211 -262 -296 -321 -325 -348 -352 -377 -411 -462 0
-23 -45 -55 -71 -103 -112 -129 -148 -165 -179 -211 -262 -280 -283 -309 -364 -390 -393 -411 -462 0
-23 -45 -55 -71 -103 -112 -129 -148 -165 -179 -211 -246 -249 -296 -309 -364 -377 -424 -427 -462 0
-23 -45 -55 -71 -103 -112 -129 -148 -165 -179 -211 -225 -249 -283 -321 -352 -390 -424 -448 -462 0
-23 -45 -55 -71 -103 -112 -129 -148 -165 -179 -211 -225 -246 -280 -325 -348 -393 -427 -448 -462 0
-23 -45 -51 -77 -103 -108 -135 -144 -171 -179 -221 -246 -249 -273 -331 -342 -400 -424 -427 -452 0
-23 -45 -51 -77 -103 -108 -135 -144 -171 -179 -221 -239 -280 -283 -331 -342 -390 -393 -434 -452 0
-23 -45 -51 -77 -103 -108 -135 -144 -171 -179 -221 -239 -273 -321 -325 -348 -352 -400 -434 -452 0
-23 -45 -51 -77 -103 -108 -135 -144 -171 -179 -217 -246 -280 -315 -331 -342 -358 -393 -427 -456 0
-23 -45 -51 -77 -103 -108 -135 -144 -171 -179 -217 -246 -273 -290 -325 -348 -383 -400 -427 -456 0
-23 -45 -51 -77 -103 -108 -135 -144 -171 -179 -217 -239 -256 -280 -325 -348 -393 -417 -434 -456 0
-23 -45 -51 -77 -103 -108 -135 -144 -171 -179 -216 -249 -283 -315 -331 -342 -358 -390 -424 -457 0
-23 -45 -51 -77 -103 -108 -135 -144 -171 -179 -216 -249 -273 -290 -321 -352 -383 -400 -424 -457 0
-23 -45 -51 -77 -103 -108 -135 -144 -171 -179 -216 -239 -256 -283 -321 -352 -390 -417 -434 -457 0
-23 -45 -51 -77 -103 -108 -135 -144 -171 -179 -216 -217 -256 -290 -315 -358 -383 -417 -456 -457 0
-23 -45 -51 -77 -103 -108 -135 -144 -171 -179 -216 -217 -239 -273 -331 -342 -400 -434 -456 -457 0
-23 -45 -51 -77 -103 -108 -135 -144 -171 -179 -212 -256 -290 -321 -325 -348 -352 -383 -417 -461 0
-23 -45 -51 -77 -103 -108 -135 -144 -171 -179 -212 -256 -280 -283 -315 -358 -390 -393 -417 -461 0
-23 -45 -51 -77 -103 -108 -135 -144 -171 -179 -212 -246 -249 -290 -315 -358 -383 -424 -427 -461 0
-23 -45 -51 -77 -103 -108 -135 -144 -171 -179 -212 -221 -249 -283 -321 -352 -390 -424 -452 -461 0
-23 -45 -51 -77 -103 -108 -135 -144 -171 -179 -212 -221 -246 -280 -325 -348 -393 -427 -452 -461 0
-23 -41 -63 -72 -96 -117 -126 -149 -158 -185 -231 -239 -250 -268 -334 -339 -405 -423 -434 -442 0
-23 -41 -63 -72 -96 -117 -126 -149 -158 -185 -231 -232 -277 -288 -334 -339 -385 -396 -441 -442 0
-23 -41 -63 -72 -96 -117 -126 -149 -158 -185 -231 -232 -268 -313 -324 -349 -360 -405 -441 -442 0
-23 -41 -63 -72 -96 -117 -126 -149 -158 -185 -221 -239 -277 -302 -334 -339 -371 -396 -434 -452 0
-23 -41 -63 -72 -96 -117 -126 -149 -158 -185 -221 -239 -268 -300 -324 -349 -373 -405 -434 -452 0
-23 -41 -63 -72 -96 -117 -126 -149 -158 -185 -221 -232 -262 -277 -324 -349 -396 -411 -441 -452 0
-23 -41 -63 -72 -96 -117 -126 -149 -158 -185 -215 -250 -288 -302 -334 -339 -371 -385 -423 -458 0
-23 -41 -63 -72 -96 -117 -126 -149 -158 -185 -215 -250 -268 -300 -313 -360 -373 -405 -423 -458 0
-23 -41 -63 -72 -96 -117 -126 -149 -158 -185 -215 -232 -262 -288 -313 -360 -385 -411 -441 -458 0
-23 -41 -63 -72 -96 -117 -126 -149 -158 -185 -215 -221 -262 -300 -302 -371 -373 -411 -452 -458 0
-23 -41 -63 -72 -96 -117 -126 -149 -158 -185 -215 -221 -232 -268 -334 -339 -405 -441 -452 -458 0
-23 -41 -63 -72 -96 -117 -126 -149 -158 -185 -211 -262 -300 -313 -324 -349 -360 -373 -411 -462 0
-23 -41 -63 -72 -96 -117 -126 -149 -158 -185 -211 -262 -277 -288 -302 -371 -385 -396 -411 -462 0
-23 -41 -63 -72 -96 -117 -126 -149 -158 -185 -211 -239 -250 -300 -302 -371 -373 -423 -434 -462 0
-23 -41 -63 -72 -96 -117 -126 -149 -158 -185 -211 -231 -250 -288 -313 -360 -385 -423 -442 -462 0
-23 -41 -63 -72 -96 -117 -126 -149 -158 -185 -211 -231 -239 -277 -324 -349 -396 -434 -442 -462 0
-23 -41 -62 -73 -96 -116 -127 -148 -159 -185 -231 -240 -249 -268 -334 -339 -405 -424 -433 -442 0
-23 -41 -62 -73 -96 -116 -127 -148 -159 -185 -231 -232 -278 -287 -334 -339 -386 -395 -441 -442 0
-23 -41 -62 -73 -96 -116 -127 -148 -159 -185 -231 -232 -268 -314 -323 -350 -359 -405 -441 -442 0
-23 -41 -62 -73 -96 -116 -127 -148 -159 -185 -220 -240 -278 -302 -334 -339 -371 -395 -433 -453 0
-23 -41 -62 -73 -96 -116 -127 -148 -159 -185 -220 -240 -268 -300 -323 -350 -373 -405 -433 -453 0
-23 -41 -62 -73 -96 -116 -127 -148 -159 -185 -220 -232 -262 -278 -323 -350 -395 -411 -441 -453 0
-23 -41 -62 -73 -96 -116 -127 -148 -159 -185 -216 -249 -287 -302 -334 -339 -371 -386 -424 -457 0
-23 -41 -62 -73 -96 -116 -127 -148 -159 -185 -216 -249 -268 -300 -314 -359 -373 -405 -424 -457 0
-23 -41 -62 -73 -96 -116 -127 -148 -159 -185 -216 -232 -262 -287 -314 -359 -386 -411 -441 -457 0
-23 -41 -62 -73 -96 -116 -127 -148 -159 -185 -216 -220 -262 -300 -302 -371 -373 -411 -453 -457 0
-23 -41 -62 -73 -96 -116 -127 -148 -159 -185 -216 -220 -232 -268 -334 -339 -405 -441 -453 -457 0
-23 -41 -62 -73 -96 -116 -127 -148 -159 -185 -211 -262 -300 -314 -323 -350 -359 -373 -411 -462 0
-23 -41 -62 -73 -96 -116 -127 -148 -159 -185 -211 -262 -278 -287 -302 -371 -386 -395 -411 -462 0
-23 -41 -62 -73 -96 -116 -127 -148 -159 -185 -211 -240 -249 -300 -302 -371 -373 -424 -433 -462 0
-23 -41 -62 -73 -96 -116 -127 -148 -159 -185 -211 -231 -249 -287 -314 -359 -386 -424 -442 -462 0
-23 -41 -62 -73 -96 -116 -127 -148 -159 -185 -211 -231 -240 -278 -323 -350 -395 -433 -442 -462 0
-23 -41 -52 -84 -96 -107 -139 -141 -171 -185 -221 -240 -249 -277 -324 -349 -396 -424 -433 -452 0
-23 -41 -52 -84 -96 -107 -139 -141 -171 -185 -221 -239 -278 -287 -324 -349 -386 -395 -434 -452 0
-23 -41 -52 -84 -96 -107 -139 -141 -171 -185 -221 -239 -277 -314 -323 -350 -359 -396 -434 -452 0
-23 -41 -52 -84 -96 -107 -139 -141 -171 -185 -220 -240 -278 -313 -324 -349 -360 -395 -433 -453 0
-23 -41 -52 -84 -96 -107 -139 -141 -171 -185 -220 -240 -277 -288 -323 -350 -385 -396 -433 -453 0
-23 -41 -52 -84 -96 -107 -139 -141 -171 -185 -220 -239 -250 -278 -323 -350 -395 -423 -434 -453 0
-23 -41 -52 -84 -96 -107 -139 -141 -171 -185 -216 -249 -287 -313 -324 -349 -360 -386 -424 -457 0
-23 -41 -52 -84 -96 -107 -139 -141 -171 -185 -216 -249 -277 -288 -314 -359 -385 -396 -424 -457 0
-23 -41 -52 -84 -96 -107 -139 -141 -171 -185 -216 -239 -250 -287 -314 -359 -386 -423 -434 -457 0
-23 -41 -52 -84 -96 -107 -139 -141 -171 -185 -216 -220 -250 -288 -313 -360 -385 -423 -453 -457 0
-23 -41 -52 -84 -96 -107 -139 -141 -171 -185 -216 -220 -239 -277 -324 -349 -396 -434 -453 -457 0
-23 -41 -52 -84 -96 -107 -139 -141 -171 -185 -215 -250 -288 -314 -323 -350 -359 -385 -423 -458 0
-23 -41 -52 -84 -96 -107 -139 -141 -171 -185 -215 -250 -278 -287 -313 -360 -386 -395 -423 -458 0
-23 -41 -52 -84 -96 -107 -139 -141 -171 -185 -215 -240 -249 -288 -313 -360 -385 -424 -433 -458 0
-23 -41 -52 -84 -96 -107 -139 -141 -171 -185 -215 -221 -249 -287 -314 -359 -386 -424 -452 -458 0
-23 -41 -52 -84 -96 -107 -139 -141 -171 -185 -215 -221 -240 -278 -323 -350 -395 -433 -452 -458 0
-23 -40 -61 -70 -97 -119 -128 -149 -158 -185 -231 -239 -250 -269 -335 -338 -404 -423 -434 -442 0
-23 -40 -61 -70 -97 -119 -128 -149 -158 -185 -231 -232 -279 -290 -335 -338 -383 -394 -441 -442 0
-23 -40 -61 -70 -97 -119 -128 -149 -158 -185 -231 -232 -269 -315 -326 -347 -358 -404 -441 -442 0
-23 -40 -61 -70 -97 -119 -128 -149 -158 -185 -221 -239 -279 -303 -335 -338 -370 -394 -434 -452 0
-23 -40 -61 -70 -97 -119 -128 -149 -158 -185 -221 -239 -269 -301 -326 -347 -372 -404 -434 -452 0
-23 -40 -61 -70 -97 -119 -128 -149 -158 -185 -221 -232 -262 -279 -326 -347 -394 -411 -441 -452 0
-23 -40 -61 -70 -97 -119 -128 -149 -158 -185 -215 -250 -290 -303 -335 -338 -370 -383 -423 -458 0
-23 -40 -61 -70 -97 -119 -128 -149 -158 -185 -215 -250 -269 -301 -315 -358 -372 -404 -423 -458 0
-23 -40 -61 -70 -97 -119 -128 -149 -158 -185 -215 -232 -262 -290 -315 -358 -383 -411 -441 -458 0
-23 -40 -61 -70 -97 -119 -128 -149 -158 -185 -215 -221 -262 -301 -303 -370 -372 -411 -452 -458 0
-23 -40 -61 -70 -97 -119 -128 -149 -158 -185 -215 -221 -232 -269 -335 -338 -404 -441 -452 -458 0
-23 -40 -61 -70 -97 -119 -128 -149 -158 -185 -211 -262 -301 -315 -326 -347 -358 -372 -411 -462 0
-23 -40 -61 -70 -97 -119 -128 -149 -158 -185 -211 -262 -279 -290 -303 -370 -383 -394 -411 -462 0
-23 -40 -61 -70 -97 -119 -128 -149 -158 -185 -211 -239 -250 -301 -303 -370 -372 -423 -434 -462 0
-23 -40 -61 -70 -97 -119 -128 -149 -158 -185 -211 -231 -250 -290 -315 -358 -383 -423 -442 -462 0
-23 -40 -61 -70 -97 -119 -128 -149 -158 -185 -211 -231 -239 -279 -326 -347 -394 -434 -442 -462 0
-23 -40 -60 -71 -97 -118 -129 -148 -159 -185 -231 -240 -249 -269 -335 -338 -404 -424 -433 -442 0
-23 -40 -60 -71 -97 -118 -129 -148 -159 -185 -231 -232 -280 -289 -335 -338 -384 -393 -441 -442 0
-23 -40 -60 -71 -97 -118 -129 -148 -159 -185 -231 -232 -269 -316 -325 -348 -357 -404 -441 -442 0
-23 -40 -60 -71 -97 -118 -129 -148 -159 -185 -220 -240 -280 -303 -335 -338 -370 -393 -433 -453 0
-23 -40 -60 -71 -97 -118 -129 -148 -159 -185 -220 -240 -269 -301 -325 -348 -372 -404 -433 -453 0
-23 -40 -60 -71 -97 -118 -129 -148 -159 -185 -220 -232 -262 -280 -325 -348 -393 -411 -441 -453 0
-23 -40 -60 -71 -97 -118 -129 -148 -159 -185 -216 -249 -289 -303 -335 -338 -370 -384 -424 -457 0
-23 -40 -60 -71 -97 -118 -129 -148 -159 -185 -216 -249 -269 -301 -316 -357 -372 -404 -424 -457 0
-23 -40 -60 -71 -97 -118 -129 -148 -159 -185 -216 -232 -262 -289 -316 -357 -384 -411 -441 -457 0
-23 -40 -60 -71 -97 -118 -129 -148 -159 -185 -216 -220 -262 -301 -303 -370 -372 -411 -453 -457 0
-23 -40 -60 -71 -97 -118 -129 -148 -159 -185 -216 -220 -232 -269 -335 -338 -404 -441 -453 -457 0
-23 -40 -60 -71 -97 -118 -129 -148 -159 -185 -211 -262 -301 -316 -325 -348 -357 -372 -411 -462 0
-23 -40 -60 -71 -97 -118 -129 -148 -159 -185 -211 -262 -280 -289 -303 -370 -384 -393 -411 -462 0
-23 -40 -60 -71 -97 -118 -129 -148 -159 -185 -211 -240 -249 -301 -303 -370 -372 -424 -433 -462 0
-23 -40 -60 -71 -97 -118 -129 -148 -159 -185 -211 -231 -249 -289 -316 -357 -384 -424 -442 -462 0
-23 -40 -60 -71 -97 -118 -129 -148 -159 -185 -211 -231 -240 -280 -325 -348 -393 -433 -442 -462 0
-23 -40 -51 -83 -97 -108 -140 -141 -171 -185 -221 -240 -249 -279 -326 -347 -394 -424 -433 -452 0
-23 -40 -51 -83 -97 -108 -140 -141 -171 -185 -221 -239 -280 -289 -326 -347 -384 -393 -434 -452 0
-23 -40 -51 -83 -97 -108 -140 -141 -171 -185 -221 -239 -279 -316 -325 -348 -357 -394 -434 -452 0
-23 -40 -51 -83 -97 -108 -140 -141 -171 -185 -220 -240 -280 -315 -326 -347 -358 -393 -433 -453 0
-23 -40 -51 -83 -97 -108 -140 -141 -171 -185 -220 -240 -279 -290 -325 -348 -383 -394 -433 -453 0
-23 -40 -51 -83 -97 -108 -140 -141 -171 -185 -220 -239 -250 -280 -325 -348 -393 -423 -434 -453 0
-23 -40 -51 -83 -97 -108 -140 -141 -171 -185 -216 -249 -289 -315 -326 -347 -358 -384 -424 -457 0
-23 -40 -51 -83 -97 -108 -140 -141 -171 -185 -216 -249 -279 -290 -316 -357 -383 -394 -424 -457 0
-23 -40 -51 -83 -97 -108 -140 -141 -171 -185 -216 -239 -250 -289 -316 -357 -384 -423 -434 -457 0
-23 -40 -51 -83 -97 -108 -140 -141 -171 -185 -216 -220 -250 -290 -315 -358 -383 -423 -453 -457 0
-23 -40 -51 -83 -97 -108 -140 -141 -171 -185 -216 -220 -239 -279 -326 -347 -394 -434 -453 -457 0
-23 -40 -51 -83 -97 -108 -140 -141 -171 -185 -215 -250 -290 -316 -325 -348 -357 -383 -423 -458 0
-23 -40 -51 -83 -97 -108 -140 -141 -171 -185 -215 -250 -280 -289 -315 -358 -384 -393 -423 -458 0
-23 -40 -51 -83 -97 -108 -140 -141 -171 -185 -215 -240 -249 -290 -315 -358 -383 -424 -433 -458 0
-23 -40 -51 -83 -97 -108 -140 -141 -171 -185 -215 -221 -249 -289 -316 -357 -384 -424 -452 -458 0
-23 -40 -51 -83 -97 -108 -140 -141 -171 -185 -215 -221 -240 -280 -325 -348 -393 -433 -452 -458 0
-23 -37 -63 -78 -92 -117 -132 -145 -158 -191 -231 -235 -250 -272 -330 -343 -401 -423 -438 -442 0
-23 -37 -63 -78 -92 -117 -132 -145 -158 -191 -231 -232 -277 -294 -330 -343 -379 -396 -441 -442 0
-23 -37 -63 -78 -92 -117 -132 -145 -158 -191 -231 -232 -272 -307 -324 -349 -366 -401 -441 -442 0
-23 -37 -63 -78 -92 -117 -132 -145 -158 -191 -225 -235 -277 -302 -330 -343 -371 -396 -438 -448 0
-23 -37 -63 -78 -92 -117 -132 -145 -158 -191 -225 -235 -272 -300 -324 -349 -373 -401 -438 -448 0
-23 -37 -63 -78 -92 -117 -132 -145 -158 -191 -225 -232 -256 -277 -324 -349 -396 -417 -441 -448 0
-23 -37 -63 -78 -92 -117 -132 -145 -158 -191 -215 -250 -294 -302 -330 -343 -371 -379 -423 -458 0
-23 -37 -63 -78 -92 -117 -132 -145 -158 -191 -215 -250 -272 -300 -307 -366 -373 -401 -423 -458 0
-23 -37 -63 -78 -92 -117 -132 -145 -158 -191 -215 -232 -256 -294 -307 -366 -379 -417 -441 -458 0
-23 -37 -63 -78 -92 -117 -132 -145 -158 -191 -215 -225 -256 -300 -302 -371 -373 -417 -448 -458 0
-23 -37 -63 -78 -92 -117 -132 -145 -158 -191 -215 -225 -232 -272 -330 -343 -401 -441 -448 -458 0
-23 -37 -63 -78 -92 -117 -132 -145 -158 -191 -212 -256 -300 -307 -324 -349 -366 -373 -417 -461 0
-23 -37 -63 -78 -92 -117 -132 -145 -158 -191 -212 -256 -277 -294 -302 -371 -379 -396 -417 -461 0
-23 -37 -63 -78 -92 -117 -132 -145 -158 -191 -212 -235 -250 -300 -302 -371 -373 -423 -438 -461 0
-23 -37 -63 -78 -92 -117 -132 -145 -158 -191 -212 -231 -250 -294 -307 -366 -379 -423 -442 -461 0
-23 -37 -63 -78 -92 -117 -132 -145 -158 -191 -212 -231 -235 -277 -324 -349 -396 -438 -442 -461 0
-23 -37 -62 -79 -92 -116 -133 -144 -159 -191 -231 -236 -249 -272 -330 -343 -401 -424 -437 -442 0
-23 -37 -62 -79 -92 -116 -133 -144 -159 -191 -231 -232 -278 -293 -330 -343 -380 -395 -441 -442 0
-23 -37 -62 -79 -92 -116 -133 -144 -159 -191 -231 -232 -272 -308 -323 -350 -365 -401 -441 -442 0
-23 -37 -62 -79 -92 -116 -133 -144 -159 -191 -224 -236 -278 -302 -330 -343 -371 -395 -437 -449 0
-23 -37 -62 -79 -92 -116 -133 -144 -159 -191 -224 -236 -272 -300 -323 -350 -373 -401 -437 -449 0
-23 -37 -62 -79 -92 -116 -133 -144 -159 -191 -224 -232 -256 -278 -323 -350 -395 -417 -441 -449 0
-23 -37 -62 -79 -92 -116 -133 -144 -159 -191 -216 -249 -293 -302 -330 -343 -371 -380 -424 -457 0
-23 -37 -62 -79 -92 -116 -133 -144 -159 -191 -216 -249 -272 -300 -308 -365 -373 -401 -424 -457 0
-23 -37 -62 -79 -92 -116 -133 -144 -159 -191 -216 -232 -256 -293 -308 -365 -380 -417 -441 -457 0
-23 -37 -62 -79 -92 -116 -133 -144 -159 -191 -216 -224 -256 -300 -302 -371 -373 -417 -449 -457 0
-23 -37 -62 -79 -92 -116 -133 -144 -159 -191 -216 -224 -232 -272 -330 -343 -401 -441 -449 -457 0
-23 -37 -62 -79 -92 -116 -133 -144 -159 -191 -212 -256 -300 -308 -323 -350 -365 -373 -417 -461 0
-23 -37 -62 -79 -92 -116 -133 -144 -159 -191 -212 -256 -278 -293 -302 -371 -380 -395 -417 -461 0
-23 -37 -62 -79 -92 -116 -133 -144 -159 -191 -212 -236 -249 -300 -302 -371 -373 -424 -437 -461 0
-23 -37 -62 -79 -92 -116 -133 -144 -159 -191 -212 -231 -249 -293 -308 -365 -380 -424 -442 -461 0
-23 -37 -62 -79 -92 -116 -133 -144 -159 -191 -212 -231 -236 -278 -323 -350 -395 -437 -442 -461 0
-23 -37 -56 -84 -92 -111 -139 -141 -165 -191 -225 -236 -249 -277 -324 -349 -396 -424 -437 -448 0
-23 -37 -56 -84 -92 -111 -139 -141 -165 -191 -225 -235 -278 -293 -324 -349 -380 -395 -438 -448 0
-23 -37 -56 -84 -92 -111 -139 -141 -165 -191 -225 -235 -277 -308 -323 -350 -365 -396 -438 -448 0
-23 -37 -56 -84 -92 -111 -139 -141 -165 -191 -224 -236 -278 -307 -324 -349 -366 -395 -437 -449 0
-23 -37 -56 -84 -92 -111 -139 -141 -165 -191 -224 -236 -277 -294 -323 -350 -379 -396 -437 -449 0
-23 -37 -56 -84 -92 -111 -139 -141 -165 -191 -224 -235 -250 -278 -323 -350 -395 -423 -438 -449 0
-23 -37 -56 -84 -92 -111 -139 -141 -165 -191 -216 -249 -293 -307 -324 -349 -366 -380 -424 -457 0
-23 -37 -56 -84 -92 -111 -139 -141 -165 -191 -216 -249 -277 -294 -308 -365 -379 -396 -424 -457 0
-23 -37 -56 -84 -92 -111 -139 -141 -165 -191 -216 -235 -250 -293 -308 -365 -380 -423 -438 -457 0
-23 -37 -56 -84 -92 -111 -139 -141 -165 -191 -216 -224 -250 -294 -307 -366 -379 -423 -449 -457 0
-23 -37 -56 -84 -92 -111 -139 -141 -165 -191 -216 -224 -235 -277 -324 -349 -396 -438 -449 -457 0
-23 -37 -56 -84 -92 -111 -139 -141 -165 -191 -215 -250 -294 -308 -323 -350 -365 -379 -423 -458 0
-23 -37 -56 -84 -92 -111 -139 -141 -165 -191 -215 -250 -278 -293 -307 -366 -380 -395 -423 -458 0
-23 -37 -56 -84 -92 -111 -139 -141 -165 -191 -215 -236 -249 -294 -307 -366 -379 -424 -437 -458 0
-23 -37 -56 -84 -92 -111 -139 -141 -165 -191 -215 -225 -249 -293 -308 -365 -380 -424 -448 -458 0
-23 -37 -56 -84 -92 -111 -139 -141 -165 -191 -215 -225 -236 -278 -323 -350 -395 -437 -448 -458 0
-23 -36 -61 -76 -93 -119 -134 -145 -158 -191 -231 -235 -250 -273 -331 -342 -400 -423 -438 -442 0
-23 -36 -61 -76 -93 -119 -134 -145 -158 -191 -231 -232 -279 -296 -331 -342 -377 -394 -441 -442 0
-23 -36 -61 -76 -93 -119 -134 -145 -158 -191 -231 -232 -273 -309 -326 -347 -364 -400 -441 -442 0
-23 -36 -61 -76 -93 -119 -134 -145 -158 -191 -225 -235 -279 -303 -331 -342 -370 -394 -438 -448 0
-23 -36 -61 -76 -93 -119 -134 -145 -158 -191 -225 -235 -273 -301 -326 -347 -372 -400 -438 -448 0
-23 -36 -61 -76 -93 -119 -134 -145 -158 -191 -225 -232 -256 -279 -326 -347 -394 -417 -441 -448 0
-23 -36 -61 -76 -93 -119 -134 -145 -158 -191 -215 -250 -296 -303 -331 -342 -370 -377 -423 -458 0
-23 -36 -61 -76 -93 -119 -134 -145 -158 -191 -215 -250 -273 -301 -309 -364 -372 -400 -423 -458 0
-23 -36 -61 -76 -93 -119 -134 -145 -158 -191 -215 -232 -256 -296 -309 -364 -377 -417 -441 -458 0
-23 -36 -61 -76 -93 -119 -134 -145 -158 -191 -215 -225 -256 -301 -303 -370 -372 -417 -448 -458 0
-23 -36 -61 -76 -93 -119 -134 -145 -158 -191 -215 -225 -232 -273 -331 -342 -400 -441 -448 -458 0
-23 -36 -61 -76 -93 -119 -134 -145 -158 -191 -212 -256 -301 -309 -326 -347 -364 -372 -417 -461 0
-23 -36 -61 -76 -93 -119 -134 -145 -158 -191 -212 -256 -279 -296 -303 -370 -377 -394 -417 -461 0
-23 -36 -61 -76 -93 -119 -134 -145 -158 -191 -212 -235 -250 -301 -303 -370 -372 -423 -438 -461 0
-23 -36 -61 -76 -93 -119 -134 -145 -158 -191 -212 -231 -250 -296 -309 -364 -377 -423 -442 -461 0
-23 -36 -61 -76 -93 -119 -134 -145 -158 -191 -212 -231 -235 -279 -326 -347 -394 -438 -442 -461 0
-23 -36 -60 -77 -93 -118 -135 -144 -159 -191 -231 -236 -249 -273 -331 -342 -400 -424 -437 -442 0
-23 -36 -60 -77 -93 -118 -135 -144 -159 -191 -231 -232 -280 -295 -331 -342 -378 -393 -441 -442 0
-23 -36 -60 -77 -93 -118 -135 -144 -159 -191 -231 -232 -273 -310 -325 -348 -363 -400 -441 -442 0
-23 -36 -60 -77 -93 -118 -135 -144 -159 -191 -224 -236 -280 -303 -331 -342 -370 -393 -437 -449 0
-23 -36 -60 -77 -93 -118 -135 -144 -159 -191 -224 -236 -273 -301 -325 -348 -372 -400 -437 -449 0
-23 -36 -60 -77 -93 -118 -135 -144 -159 -191 -224 -232 -256 -280 -325 -348 -393 -417 -441 -449 0
-23 -36 -60 -77 -93 -118 -135 -144 -159 -191 -216 -249 -295 -303 -331 -342 -370 -378 -424 -457 0
-23 -36 -60 -77 -93 -118 -135 -144 -159 -191 -216 -249 -273 -301 -310 -363 -372 -400 -424 -457 0
-23 -36 -60 -77 -93 -118 -135 -144 -159 -191 -216 -232 -256 -295 -310 -363 -378 -417 -441 -457 0
-23 -36 -60 -77 -93 -118 -135 -144 -159 -191 -216 -224 -256 -301 -303 -370 -372 -417 -449 -457 0
-23 -36 -60 -77 -93 -118 -135 -144 -159 -191 -216 -224 -232 -273 -331 -342 -400 -441 -449 -457 0
-23 -36 -60 -77 -93 -118 -135 -144 -159 -191 -212 -256 -301 -310 -325 -348 -363 -372 -417 -461 0
-23 -36 -60 -77 -93 -118 -135 -144 -159 -191 -212 -256 -280 -295 -303 -370 -378 -393 -417 -461 0
-23 -36 -60 -77 -93 -118 -135 -144 -159 -191 -212 -236 -249 -301 -303 -370 -372 -424 -437 -461 0
-23 -36 -60 -77 -93 -118 -135 -144 -159 -191 -212 -231 -249 -295 -310 -363 -378 -424 -442 -461 0
-23 -36 -60 -77 -93 -118 -135 -144 -159 -191 -212 -231 -236 -280 -325 -348 -393 -437 -442 -461 0
-23 -36 -55 -83 -93 -112 -140 -141 -165 -191 -225 -236 -249 -279 -326 -347 -394 -424 -437 -448 0
-23 -36 -55 -83 -93 -112 -140 -141 -165 -191 -225 -235 -280 -295 -326 -347 -378 -393 -438 -448 0
-23 -36 -55 -83 -93 -112 -140 -141 -165 -191 -225 -235 -279 -310 -325 -348 -363 -394 -438 -448 0
-23 -36 -55 -83 -93 -112 -140 -141 -165 -191 -224 -236 -280 -309 -326 -347 -364 -393 -437 -449 0
-23 -36 -55 -83 -93 -112 -140 -141 -165 -191 -224 -236 -279 -296 -325 -348 -377 -394 -437 -449 0
-23 -36 -55 -83 -93 -112 -140 -141 -165 -191 -224 -235 -250 -280 -325 -348 -393 -423 -438 -449 0
-23 -36 -55 -83 -93 -112 -140 -141 -165 -191 -216 -249 -295 -309 -326 -347 -364 -378 -424 -457 0
-23 -36 -55 -83 -93 -112 -140 -141 -165 -191 -216 -249 -279 -296 -310 -363 -377 -394 -424 -457 0
-23 -36 -55 -83 -93 -112 -140 -141 -165 -191 -216 -235 -250 -295 -310 -363 -378 -423 -438 -457 0
-23 -36 -55 -83 -93 -112 -140 -141 -165 -191 -216 -224 -250 -296 -309 -364 -377 -423 -449 -457 0
-23 -36 -55 -83 -93 -112 -140 -141 -165 -191 -216 -224 -235 -279 -326 -347 -394 -438 -449 -457 0
-23 -36 -55 -83 -93 -112 -140 -141 -165 -191 -215 -250 -296 -310 -325 -348 -363 -377 -423 -458 0
-23 -36 -55 -83 -93 -112 -140 -141 -165 -191 -215 -250 -280 -295 -309 -364 -378 -393 -423 -458 0
-23 -36 -55 -83 -93 -112 -140 -141 -165 -191 -215 -236 -249 -296 -309 -364 -377 -424 -437 -458 0
-23 -36 -55 -83 -93 -112 -140 -141 -165 -191 -215 -225 -249 -295 -310 -363 -378 -424 -448 -458 0
-23 -36 -55 -83 -93 -112 -140 -141 -165 -191 -215 -225 -236 -280 -325 -348 -393 -437 -448 -458 0
-23 -32 -73 -78 -87 -127 -132 -145 -148 -201 -231 -235 -240 -282 -320 -353 -391 -433 -438 -442 0
-23 -32 -73 -78 -87 -127 -132 -145 -148 -201 -231 -232 -287 -294 -320 -353 -379 -386 -441 -442 0
-23 -32 -73 -78 -87 -127 -132 -145 -148 -201 -231 -232 -282 -307 -314 -359 -366 -391 -441 -442 0
-23 -32 -73 -78 -87 -127 -132 -145 -148 -201 -225 -235 -287 -302 -320 -353 -371 -386 -438 -448 0
-23 -32 -73 -78 -87 -127 -132 -145 -148 -201 -225 -235 -282 -300 -314 -359 -373 -391 -438 -448 0
-23 -32 -73 -78 -87 -127 -132 -145 -148 -201 -225 -232 -246 -287 -314 -359 -386 -427 -441 -448 0
-23 -32 -73 -78 -87 -127 -132 -145 -148 -201 -220 -240 -294 -302 -320 -353 -371 -379 -433 -453 0
-23 -32 -73 -78 -87 -127 -132 -145 -148 -201 -220 -240 -282 -300 -307 -366 -373 -391 -433 -453 0
-23 -32 -73 -78 -87 -127 -132 -145 -148 -201 -220 -232 -246 -294 -307 -366 -379 -427 -441 -453 0
-23 -32 -73 -78 -87 -127 -132 -145 -148 -201 -220 -225 -246 -300 -302 -371 -373 -427 -448 -453 0
-23 -32 -73 -78 -87 -127 -132 -145 -148 -201 -220 -225 -232 -282 -320 -353 -391 -441 -448 -453 0
-23 -32 -73 -78 -87 -127 -132 -145 -148 -201 -217 -246 -300 -307 -314 -359 -366 -373 -427 -456 0
-23 -32 -73 -78 -87 -127 -132 -145 -148 -201 -217 -246 -287 -294 -302 -371 -379 -386 -427 -456 0
-23 -32 -73 -78 -87 -127 -132 -145 -148 -201 -217 -235 -240 -300 -302 -371 -373 -433 -438 -456 0
-23 -32 -73 -78 -87 -127 -132 -145 -148 -201 -217 -231 -240 -294 -307 -366 -379 -433 -442 -456 0
-23 -32 -73 -78 -87 -127 -132 -145 -148 -201 -217 -231 -235 -287 -314 -359 -386 -438 -442 -456 0
-23 -32 -72 -79 -87 -126 -133 -144 -149 -201 -231 -236 -239 -282 -320 -353 -391 -434 -437 -442 0
-23 -32 -72 -79 -87 -126 -133 -144 -149 -201 -231 -232 -288 -293 -320 -353 -380 -385 -441 -442 0
-23 -32 -72 -79 -87 -126 -133 -144 -149 -201 -231 -232 -282 -308 -313 -360 -365 -391 -441 -442 0
-23 -32 -72 -79 -87 -126 -133 -144 -149 -201 -224 -236 -288 -302 -320 -353 -371 -385 -437 -449 0
-23 -32 -72 -79 -87 -126 -133 -144 -149 -201 -224 -236 -282 -300 -313 -360 -373 -391 -437 -449 0
-23 -32 -72 -79 -87 -126 -133 -144 -149 -201 -224 -232 -246 -288 -313 -360 -385 -427 -441 -449 0
-23 -32 -72 -79 -87 -126 -133 -144 -149 -201 -221 -239 -293 -302 -320 -353 -371 -380 -434 -452 0
-23 -32 -72 -79 -87 -126 -133 -144 -149 -201 -221 -239 -282 -300 -308 -365 -373 -391 -434 -452 0
-23 -32 -72 -79 -87 -126 -133 -144 -149 -201 -221 -232 -246 -293 -308 -365 -380 -427 -441 -452 0
-23 -32 -72 -79 -87 -126 -133 -144 -149 -201 -221 -224 -246 -300 -302 -371 -373 -427 -449 -452 0
-23 -32 -72 -79 -87 -126 -133 -144 -149 -201 -221 -224 -232 -282 -320 -353 -391 -441 -449 -452 0
-23 -32 -72 -79 -87 -126 -133 -144 -149 -201 -217 -246 -300 -308 -313 -360 -365 -373 -427 -456 0
-23 -32 -72 -79 -87 -126 -133 -144 -149 -201 -217 -246 -288 -293 -302 -371 -380 -385 -427 -456 0
-23 -32 -72 -79 -87 -126 -133 -144 -149 -201 -217 -236 -239 -300 -302 -371 -373 -434 -437 -456 0
-23 -32 -72 -79 -87 -126 -133 -144 -149 -201 -217 -231 -239 -293 -308 -365 -380 -434 -442 -456 0
-23 -32 -72 -79 -87 -126 -133 -144 -149 -201 -217 -231 -236 -288 -313 -360 -385 -437 -442 -456 0
-23 -32 -66 -84 -87 -121 -139 -141 -155 -201 -225 -236 -239 -287 -314 -359 -386 -434 -437 -448 0
-23 -32 -66 -84 -87 -121 -139 -141 -155 -201 -225 -235 -288 -293 -314 -359 -380 -385 -438 -448 0
-23 -32 -66 -84 -87 -121 -139 -141 -155 -201 -225 -235 -287 -308 -313 -360 -365 -386 -438 -448 0
-23 -32 -66 -84 -87 -121 -139 -141 -155 -201 -224 -236 -288 -307 -314 -359 -366 -385 -437 -449 0
-23 -32 -66 -84 -87 -121 -139 -141 -155 -201 -224 -236 -287 -294 -313 -360 -379 -386 -437 -449 0
-23 -32 -66 -84 -87 -121 -139 -141 -155 -201 -224 -235 -240 -288 -313 -360 -385 -433 -438 -449 0
-23 -32 -66 -84 -87 -121 -139 -141 -155 -201 -221 -239 -293 -307 -314 -359 -366 -380 -434 -452 0
-23 -32 -66 -84 -87 -121 -139 -141 -155 -201 -221 -239 -287 -294 -308 -365 -379 -386 -434 -452 0
-23 -32 -66 -84 -87 -121 -139 -141 -155 -201 -221 -235 -240 -293 -308 -365 -380 -433 -438 -452 0
-23 -32 -66 -84 -87 -121 -139 -141 -155 -201 -221 -224 -240 -294 -307 -366 -379 -433 -449 -452 0
-23 -32 -66 -84 -87 -121 -139 -141 -155 -201 -221 -224 -235 -287 -314 -359 -386 -438 -449 -452 0
-23 -32 -66 -84 -87 -121 -139 -141 -155 -201 -220 -240 -294 -308 -313 -360 -365 -379 -433 -453 0
-23 -32 -66 -84 -87 -121 -139 -141 -155 -201 -220 -240 -288 -293 -307 -366 -380 -385 -433 -453 0
-23 -32 -66 -84 -87 -121 -139 -141 -155 -201 -220 -236 -239 -294 -307 -366 -379 -434 -437 -453 0
-23 -32 -66 -84 -87 -121 -139 -141 -155 -201 -220 -225 -239 -293 -308 -365 -380 -434 -448 -453 0
-23 -32 -66 -84 -87 -121 -139 -141 -155 -201 -220 -225 -236 -288 -313 -360 -385 -437 -448 -453 0
-23 -31 -71 -76 -88 -129 -134 -145 -148 -201 -231 -235 -240 -283 -321 -352 -390 -433 -438 -442 0
-23 -31 -71 -76 -88 -129 -134 -145 -148 -201 -231 -232 -289 -296 -321 -352 -377 -384 -441 -442 0
-23 -31 -71 -76 -88 -129 -134 -145 -148 -201 -231 -232 -283 -309 -316 -357 -364 -390 -441 -442 0
-23 -31 -71 -76 -88 -129 -134 -145 -148 -201 -225 -235 -289 -303 -321 -352 -370 -384 -438 -448 0
-23 -31 -71 -76 -88 -129 -134 -145 -148 -201 -225 -235 -283 -301 -316 -357 -372 -390 -438 -448 0
-23 -31 -71 -76 -88 -129 -134 -145 -148 -201 -225 -232 -246 -289 -316 -357 -384 -427 -441 -448 0
-23 -31 -71 -76 -88 -129 -134 -145 -148 -201 -220 -240 -296 -303 -321 -352 -370 -377 -433 -453 0
-23 -31 -71 -76 -88 -129 -134 -145 -148 -201 -220 -240 -283 -301 -309 -364 -372 -390 -433 -453 0
-23 -31 -71 -76 -88 -129 -134 -145 -148 -201 -220 -232 -246 -296 -309 -364 -377 -427 -441 -453 0
-23 -31 -71 -76 -88 -129 -134 -145 -148 -201 -220 -225 -246 -301 -303 -370 -372 -427 -448 -453 0
-23 -31 -71 -76 -88 -129 -134 -145 -148 -201 -220 -225 -232 -283 -321 -352 -390 -441 -448 -453 0
-23 -31 -71 -76 -88 -129 -134 -145 -148 -201 -217 -246 -301 -309 -316 -357 -364 -372 -427 -456 0
-23 -31 -71 -76 -88 -129 -134 -145 -148 -201 -217 -246 -289 -296 -303 -370 -377 -384 -427 -456 0
-23 -31 -71 -76 -88 -129 -134 -145 -148 -201 -217 -235 -240 -301 -303 -370 -372 -433 -438 -456 0
-23 -31 -71 -76 -88 -129 -134 -145 -148 -201 -217 -231 -240 -296 -309 -364 -377 -433 -442 -456 0
-23 -31 -71 -76 -88 -129 -134 -145 -148 -201 -217 -231 -235 -289 -316 -357 -384 -438 -442 -456 0
-23 -31 -70 -77 -88 -128 -135 -144 -149 -201 -231 -236 -239 -283 -321 -352 -390 -434 -437 -442 0
-23 -31 -70 -77 -88 -128 -135 -144 -149 -201 -231 -232 -290 -295 -321 -352 -378 -383 -441 -442 0
-23 -31 -70 -77 -88 -128 -135 -144 -149 -201 -231 -232 -283 -310 -315 -358 -363 -390 -441 -442 0
-23 -31 -70 -77 -88 -128 -135 -144 -149 -201 -224 -236 -290 -303 -321 -352 -370 -383 -437 -449 0
-23 -31 -70 -77 -88 -128 -135 -144 -149 -201 -224 -236 -283 -301 -315 -358 -372 -390 -437 -449 0
-23 -31 -70 -77 -88 -128 -135 -144 -149 -201 -224 -232 -246 -290 -315 -358 -383 -427 -441 -449 0
-23 -31 -70 -77 -88 -128 -135 -144 -149 -201 -221 -239 -295 -303 -321 -352 -370 -378 -434 -452 0
-23 -31 -70 -77 -88 -128 -135 -144 -149 -201 -221 -239 -283 -301 -310 -363 -372 -390 -434 -452 0
-23 -31 -70 -77 -88 -128 -135 -144 -149 -201 -221 -232 -246 -295 -310 -363 -378 -427 -441 -452 0
-23 -31 -70 -77 -88 -128 -135 -144 -149 -201 -221 -224 -246 -301 -303 -370 -372 -427 -449 -452 0
-23 -31 -70 -77 -88 -128 -135 -144 -149 -201 -221 -224 -232 -283 -321 -352 -390 -441 -449 -452 0
-23 -31 -70 -77 -88 -128 -135 -144 -149 -201 -217 -246 -301 -310 -315 -358 -363 -372 -427 -456 0
-23 -31 -70 -77 -88 -128 -135 -144 -149 -201 -217 -246 -290 -295 -303 -370 -378 -383 -427 -456 0
-23 -31 -70 -77 -88 -128 -135 -144 -149 -201 -217 -236 -239 -301 -303 -370 -372 -434 -437 -456 0
-23 -31 -70 -77 -88 -128 -135 -144 -149 -201 -217 -231 -239 -295 -310 -363 -378 -434 -442 -456 0
-23 -31 -70 -77 -88 -128 -135 -144 -149 -201 -217 -231 -236 -290 -315 -358 -383 -437 -442 -456 0
-23 -31 -65 -83 -88 -122 -140 -141 -155 -201 -225 -236 -239 -289 -316 -357 -384 -434 -437 -448 0
-23 -31 -65 -83 -88 -122 -140 -141 -155 -201 -225 -235 -290 -295 -316 -357 -378 -383 -438 -448 0
-23 -31 -65 -83 -88 -122 -140 -141 -155 -201 -225 -235 -289 -310 -315 -358 -363 -384 -438 -448 0
-23 -31 -65 -83 -88 -122 -140 -141 -155 -201 -224 -236 -290 -309 -316 -357 -364 -383 -437 -449 0
-23 -31 -65 -83 -88 -122 -140 -141 -155 -201 -224 -236 -289 -296 -315 -358 -377 -384 -437 -449 0
-23 -31 -65 -83 -88 -122 -140 -141 -155 -201 -224 -235 -240 -290 -315 -358 -383 -433 -438 -449 0
-23 -31 -65 -83 -88 -122 -140 -141 -155 -201 -221 -239 -295 -309 -316 -357 -364 -378 -434 -452 0
-23 -31 -65 -83 -88 -122 -140 -141 -155 -201 -221 -239 -289 -296 -310 -363 -377 -384 -434 -452 0
-23 -31 -65 -83 -88 -122 -140 -141 -155 -201 -221 -235 -240 -295 -310 -363 -378 -433 -438 -452 0
-23 -31 -65 -83 -88 -122 -140 -141 -155 -201 -221 -224 -240 -296 -309 -364 -377 -433 -449 -452 0
-23 -31 -65 -83 -88 -122 -140 -141 -155 -201 -221 -224 -235 -289 -316 -357 -384 -438 -449 -452 0
-23 -31 -65 -83 -88 -122 -140 -141 -155 -201 -220 -240 -296 -310 -315 -358 -363 -377 -433 -453 0
-23 -31 -65 -83 -88 -122 -140 -141 -155 -201 -220 -240 -290 -295 -309 -364 -378 -383 -433 -453 0
-23 -31 -65 -83 -88 -122 -140 -141 -155 -201 -220 -236 -239 -296 -309 -364 -377 -434 -437 -453 0
-23 -31 -65 -83 -88 -122 -140 -141 -155 -201 -220 -225 -239 -295 -310 -363 -378 -434 -448 -453 0
-23 -31 -65 -83 -88 -122 -140 -141 -155 -201 -220 -225 -236 -290 -315 -358 -383 -437 -448 -453 0
-22 -49 -54 -82 -98 -106 -131 -144 -172 -180 -219 -244 -252 -272 -325 -348 -401 -421 -429 -454 0
-22 -49 -54 -82 -98 -106 -131 -144 -172 -180 -219 -242 -273 -282 -325 -348 -391 -400 -431 -454 0
-22 -49 -54 -82 -98 -106 -131 -144 -172 -180 -218 -244 -272 -283 -323 -350 -390 -401 -429 -455 0
-22 -49 -54 -82 -98 -106 -131 -144 -172 -180 -218 -242 -254 -273 -323 -350 -400 -419 -431 -455 0
-22 -48 -61 -74 -97 -111 -123 -150 -163 -181 -227 -244 -251 -267 -332 -341 -406 -422 -429 -446 0
-22 -48 -61 -74 -97 -111 -123 -150 -163 -181 -227 -234 -274 -282 -332 -341 -391 -399 -439 -446 0
-22 -48 -61 -74 -97 -111 -123 -150 -163 -181 -227 -234 -267 -315 -322 -351 -358 -406 -439 -446 0
-22 -48 -61 -74 -97 -111 -123 -150 -163 -181 -218 -244 -274 -303 -332 -341 -370 -399 -429 -455 0
-22 -48 -61 -74 -97 -111 -123 -150 -163 -181 -218 -244 -267 -293 -322 -351 -380 -406 -429 -455 0
-22 -48 -61 -74 -97 -111 -123 -150 -163 -181 -218 -234 -263 -274 -322 -351 -399 -410 -439 -455 0
-22 -48 -61 -74 -97 -111 -123 -150 -163 -181 -215 -251 -282 -303 -332 -341 -370 -391 -422 -458 0
-22 -48 -61 -74 -97 -111 -123 -150 -163 -181 -215 -251 -267 -293 -315 -358 -380 -406 -422 -458 0
-22 -48 -61 -74 -97 -111 -123 -150 -163 -181 -215 -234 -263 -282 -315 -358 -391 -410 -439 -458 0
-22 -48 -61 -74 -97 -111 -123 -150 -163 -181 -215 -218 -263 -293 -303 -370 -380 -410 -455 -458 0
-22 -48 -61 -74 -97 -111 -123 -150 -163 -181 -215 -218 -234 -267 -332 -341 -406 -439 -455 -458 0
-22 -48 -61 -74 -97 -111 -123 -150 -163 -181 -211 -263 -293 -315 -322 -351 -358 -380 -410 -462 0
-22 -48 -61 -74 -97 -111 -123 -150 -163 -181 -211 -263 -274 -282 -303 -370 -391 -399 -410 -462 0
-22 -48 -61 -74 -97 -111 -123 -150 -163 -181 -211 -244 -251 -293 -303 -370 -380 -422 -429 -462 0
-22 -48 -61 -74 -97 -111 -123 -150 -163 -181 -211 -227 -251 -282 -315 -358 -391 -422 -446 -462 0
-22 -48 -61 -74 -97 -111 -123 -150 -163 -181 -211 -227 -244 -274 -322 -351 -399 -429 -446 -462 0
-22 -46 -63 -74 -96 -112 -123 -150 -161 -183 -229 -242 -251 -267 -332 -341 -406 -422 -431 -444 0
-22 -46 -63 -74 -96 -112 -123 -150 -161 -183 -229 -233 -274 -283 -332 -341 -390 -399 -440 -444 0
-22 -46 -63 -74 -96 -112 -123 -150 -161 -183 -229 -233 -267 -313 -322 -351 -360 -406 -440 -444 0
-22 -46 -63 -74 -96 -112 -123 -150 -161 -183 -219 -242 -274 -302 -332 -341 -371 -399 -431 -454 0
-22 -46 -63 -74 -96 -112 -123 -150 -161 -183 -219 -242 -267 -295 -322 -351 -378 -406 -431 -454 0
-22 -46 -63 -74 -96 -112 -123 -150 -161 -183 -219 -233 -263 -274 -322 -351 -399 -410 -440 -454 0
-22 -46 -63 -74 -96 -112 -123 -150 -161 -183 -215 -251 -283 -302 -332 -341 -371 -390 -422 -458 0
-22 -46 -63 -74 -96 -112 -123 -150 -161 -183 -215 -251 -267 -295 -313 -360 -378 -406 -422 -458 0
-22 -46 -63 -74 -96 -112 -123 -150 -161 -183 -215 -233 -263 -283 -313 -360 -390 -410 -440 -458 0
-22 -46 -63 -74 -96 -112 -123 -150 -161 -183 -215 -219 -263 -295 -302 -371 -378 -410 -454 -458 0
-22 -46 -63 -74 -96 -112 -123 -150 -161 -183 -215 -219 -233 -267 -332 -341 -406 -440 -454 -458 0
-22 -46 -63 -74 -96 -112 -123 -150 -161 -183 -211 -263 -295 -313 -322 -351 -360 -378 -410 -462 0
-22 -46 -63 -74 -96 -112 -123 -150 -161 -183 -211 -263 -274 -283 -302 -371 -390 -399 -410 -462 0
-22 -46 -63 -74 -96 -112 -123 -150 -161 -183 -211 -242 -251 -295 -302 -371 -378 -422 -431 -462 0
-22 -46 -63 -74 -96 -112 -123 -150 -161 -183 -211 -229 -251 -283 -313 -360 -390 -422 -444 -462 0
-22 -46 -63 -74 -96 -112 -123 -150 -161 -183 -211 -229 -242 -274 -322 -351 -399 -431 -444 -462 0
-22 -42 -50 -75 -105 -110 -138 -144 -172 -180 -219 -244 -252 -278 -331 -342 -395 -421 -429 -454 0
-22 -42 -50 -75 -105 -110 -138 -144 -172 -180 -219 -242 -278 -321 -330 -343 -352 -395 -431 -454 0
-22 -42 -50 -75 -105 -110 -138 -144 -172 -180 -218 -244 -280 -320 -331 -342 -353 -393 -429 -455 0
-22 -42 -50 -75 -105 -110 -138 -144 -172 -180 -218 -242 -254 -280 -330 -343 -393 -419 -431 -455 0
-22 -41 -55 -67 -104 -117 -130 -150 -163 -181 -227 -244 -251 -271 -336 -337 -402 -422 -429 -446 0
-22 -41 -55 -67 -104 -117 -130 -150 -163 -181 -227 -234 -281 -288 -336 -337 -385 -392 -439 -446 0
-22 -41 -55 -67 -104 -117 -130 -150 -163 -181 -227 -234 -271 -321 -329 -344 -352 -402 -439 -446 0
-22 -41 -55 -67 -104 -117 -130 -150 -163 -181 -218 -244 -281 -310 -336 -337 -363 -392 -429 -455 0
-22 -41 -55 -67 -104 -117 -130 -150 -163 -181 -218 -244 -271 -300 -329 -344 -373 -402 -429 -455 0
-22 -41 -55 -67 -104 -117 -130 -150 -163 -181 -218 -234 -263 -281 -329 -344 -392 -410 -439 -455 0
-22 -41 -55 -67 -104 -117 -130 -150 -163 -181 -215 -251 -288 -310 -336 -337 -363 -385 -422 -458 0
-22 -41 -55 -67 -104 -117 -130 -150 -163 -181 -215 -251 -271 -300 -321 -352 -373 -402 -422 -458 0
-22 -41 -55 -67 -104 -117 -130 -150 -163 -181 -215 -234 -263 -288 -321 -352 -385 -410 -439 -458 0
-22 -41 -55 -67 -104 -117 -130 -150 -163 -181 -215 -218 -263 -300 -310 -363 -373 -410 -455 -458 0
-22 -41 -55 -67 -104 -117 -130 -150 -163 -181 -215 -218 -234 -271 -336 -337 -402 -439 -455 -458 0
-22 -41 -55 -67 -104 -117 -130 -150 -163 -181 -211 -263 -300 -321 -329 -344 -352 -373 -410 -462 0
-22 -41 -55 -67 -104 -117 -130 -150 -163 -181 -211 -263 -281 -288 -310 -363 -385 -392 -410 -462 0
-22 -41 -55 -67 -104 -117 -130 -150 -163 -181 -211 -244 -251 -300 -310 -363 -373 -422 -429 -462 0
-22 -41 -55 -67 -104 -117 -130 -150 -163 -181 -211 -227 -251 -288 -321 -352 -385 -422 -446 -462 0
-22 -41 -55 -67 -104 -117 -130 -150 -163 -181 -211 -227 -244 -281 -329 -344 -392 -429 -446 -462 0
-22 -40 -56 -67 -102 -119 -130 -150 -161 -183 -229 -242 -251 -271 -336 -337 -402 -422 -431 -444 0
-22 -40 -56 -67 -102 -119 -130 -150 -161 -183 -229 -233 -281 -290 -336 -337 -383 -392 -440 -444 0
-22 -40 -56 -67 -102 -119 -130 -150 -161 -183 -229 -233 -271 -320 -329 -344 -353 -402 -440 -444 0
-22 -40 -56 -67 -102 -119 -130 -150 -161 -183 -219 -242 -281 -308 -336 -337 -365 -392 -431 -454 0
-22 -40 -56 -67 -102 -119 -130 -150 -161 -183 -219 -242 -271 -301 -329 -344 -372 -402 -431 -454 0
-22 -40 -56 -67 -102 -119 -130 -150 -161 -183 -219 -233 -263 -281 -329 -344 -392 -410 -440 -454 0
-22 -40 -56 -67 -102 -119 -130 -150 -161 -183 -215 -251 -290 -308 -336 -337 -365 -383 -422 -458 0
-22 -40 -56 -67 -102 -119 -130 -150 -161 -183 -215 -251 -271 -301 -320 -353 -372 -402 -422 -458 0
-22 -40 -56 -67 -102 -119 -130 -150 -161 -183 -215 -233 -263 -290 -320 -353 -383 -410 -440 -458 0
-22 -40 -56 -67 -102 -119 -130 -150 -161 -183 -215 -219 -263 -301 -308 -365 -372 -410 -454 -458 0
-22 -40 -56 -67 -102 -119 -130 -150 -161 -183 -215 -219 -233 -271 -336 -337 -402 -440 -454 -458 0
-22 -40 -56 -67 -102 -119 -130 -150 -161 -183 -211 -263 -301 -320 -329 -344 -353 -372 -410 -462 0
-22 -40 -56 -67 -102 -119 -130 -150 -161 -183 -211 -263 -281 -290 -308 -365 -383 -392 -410 -462 0
-22 -40 -56 -67 -102 -119 -130 -150 -161 -183 -211 -242 -251 -301 -308 -365 -372 -422 -431 -462 0
-22 -40 -56 -67 -102 -119 -130 -150 -161 -183 -211 -229 -251 -290 -320 -353 -383 -422 -444 -462 0
-22 -40 -56 -67 -102 -119 -130 -150 -161 -183 -211 -229 -242 -281 -329 -344 -392 -431 -444 -462 0
-22 -39 -64 -82 -91 -113 -131 -144 -160 -192 -229 -234 -252 -272 -325 -348 -401 -421 -439 -444 0
-22 -39 -64 -82 -91 -113 -131 -144 -160 -192 -229 -233 -272 -303 -323 -350 -370 -401 -440 -444 0
-22 -39 -64 -82 -91 -113 -131 -144 -160 -192 -227 -234 -273 -302 -325 -348 -371 -400 -439 -446 0
-22 -39 -64 -82 -91 -113 -131 -144 -160 -192 -227 -233 -254 -273 -323 -350 -400 -419 -440 -446 0
-22 -35 -57 -75 -95 -120 -138 -144 -160 -192 -229 -234 -252 -278 -331 -342 -395 -421 -439 -444 0
-22 -35 -57 -75 -95 -120 -138 -144 -160 -192 -229 -233 -280 -300 -331 -342 -373 -393 -440 -444 0
-22 -35 -57 -75 -95 -120 -138 -144 -160 -192 -227 -234 -278 -301 -330 -343 -372 -395 -439 -446 0
-22 -35 -57 -75 -95 -120 -138 -144 -160 -192 -227 -233 -254 -280 -330 -343 -393 -419 -440 -446 0
-22 -34 -74 -82 -86 -123 -131 -144 -150 -202 -229 -234 -242 -282 -315 -358 -391 -431 -439 -444 0
-22 -34 -74 -82 -86 -123 -131 -144 -150 -202 -229 -233 -283 -293 -315 -358 -380 -390 -440 -444 0
-22 -34 -74 -82 -86 -123 -131 -144 -150 -202 -229 -233 -282 -303 -313 -360 -370 -391 -440 -444 0
-22 -34 -74 -82 -86 -123 -131 -144 -150 -202 -227 -234 -283 -302 -315 -358 -371 -390 -439 -446 0
-22 -34 -74 -82 -86 -123 -131 -144 -150 -202 -227 -234 -282 -295 -313 -360 -378 -391 -439 -446 0
-22 -34 -74 -82 -86 -123 -131 -144 -150 -202 -227 -233 -244 -283 -313 -360 -390 -429 -440 -446 0
-22 -34 -74 -82 -86 -123 -131 -144 -150 -202 -219 -242 -293 -302 -315 -358 -371 -380 -431 -454 0
-22 -34 -74 -82 -86 -123 -131 -144 -150 -202 -219 -242 -282 -295 -303 -370 -378 -391 -431 -454 0
-22 -34 -74 -82 -86 -123 -131 -144 -150 -202 -219 -233 -244 -293 -303 -370 -380 -429 -440 -454 0
-22 -34 -74 -82 -86 -123 -131 -144 -150 -202 -219 -227 -244 -295 -302 -371 -378 -429 -446 -454 0
-22 -34 -74 -82 -86 -123 -131 -144 -150 -202 -219 -227 -233 -282 -315 -358 -391 -440 -446 -454 0
-22 -34 -74 -82 -86 -123 -131 -144 -150 -202 -218 -244 -295 -303 -313 -360 -370 -378 -429 -455 0
-22 -34 -74 -82 -86 -123 -131 -144 -150 -202 -218 -244 -283 -293 -302 -371 -380 -390 -429 -455 0
-22 -34 -74 -82 -86 -123 -131 -144 -150 -202 -218 -234 -242 -295 -302 -371 -378 -431 -439 -455 0
-22 -34 -74 -82 -86 -123 -131 -144 -150 -202 -218 -229 -242 -293 -303 -370 -380 -431 -444 -455 0
-22 -34 -74 -82 -86 -123 -131 -144 -150 -202 -218 -229 -234 -283 -313 -360 -390 -439 -444 -455 0
-22 -34 -73 -83 -86 -122 -132 -143 -151 -202 -229 -233 -282 -304 -312 -361 -369 -391 -440 -444 0
-22 -34 -73 -83 -86 -122 -132 -143 -151 -202 -220 -233 -244 -292 -304 -369 -381 -429 -440 -453 0
-22 -34 -73 -83 -86 -122 -132 -143 -151 -202 -218 -244 -284 -292 -302 -371 -381 -389 -429 -455 0
-22 -34 -73 -83 -86 -122 -132 -143 -151 -202 -218 -229 -235 -284 -312 -361 -389 -438 -444 -455 0
-22 -34 -71 -84 -86 -121 -134 -142 -153 -202 -227 -234 -283 -304 -312 -361 -369 -390 -439 -446 0
-22 -34 -71 -84 -86 -121 -134 -142 -153 -202 -220 -234 -242 -292 -304 -369 -381 -431 -439 -453 0
-22 -34 -71 -84 -86 -121 -134 -142 -153 -202 -219 -242 -284 -292 -303 -370 -381 -389 -431 -454 0
-22 -34 -71 -84 -86 -121 -134 -142 -153 -202 -219 -227 -235 -284 -312 -361 -389 -438 -446 -454 0
-22 -30 -67 -75 -90 -130 -138 -144 -150 -202 -229 -234 -242 -288 -321 -352 -385 -431 -439 -444 0
-22 -30 -67 -75 -90 -130 -138 -144 -150 -202 -229 -233 -290 -300 -321 -352 -373 -383 -440 -444 0
-22 -30 -67 -75 -90 -130 -138 -144 -150 -202 -229 -233 -288 -310 -320 -353 -363 -385 -440 -444 0
-22 -30 -67 -75 -90 -130 -138 -144 -150 -202 -227 -234 -290 -308 -321 -352 -365 -383 -439 -446 0
-22 -30 -67 -75 -90 -130 -138 -144 -150 -202 -227 -234 -288 -301 -320 -353 -372 -385 -439 -446 0
-22 -30 -67 -75 -90 -130 -138 -144 -150 -202 -227 -233 -244 -290 -320 -353 -383 -429 -440 -446 0
-22 -30 -67 -75 -90 -130 -138 -144 -150 -202 -219 -242 -300 -308 -321 -352 -365 -373 -431 -454 0
-22 -30 -67 -75 -90 -130 -138 -144 -150 -202 -219 -242 -288 -301 -310 -363 -372 -385 -431 -454 0
-22 -30 -67 -75 -90 -130 -138 -144 -150 -202 -219 -233 -244 -300 -310 -363 -373 -429 -440 -454 0
-22 -30 -67 -75 -90 -130 -138 -144 -150 -202 -219 -227 -244 -301 -308 -365 -372 -429 -446 -454 0
-22 -30 -67 -75 -90 -130 -138 -144 -150 -202 -219 -227 -233 -288 -321 -352 -385 -440 -446 -454 0
-22 -30 -67 -75 -90 -130 -138 -144 -150 -202 -218 -244 -301 -310 -320 -353 -363 -372 -429 -455 0
-22 -30 -67 -75 -90 -130 -138 -144 -150 -202 -218 -244 -290 -300 -308 -365 -373 -383 -429 -455 0
-22 -30 -67 -75 -90 -130 -138 -144 -150 -202 -218 -234 -242 -301 -308 -365 -372 -431 -439 -455 0
-22 -30 -67 -75 -90 -130 -138 -144 -150 -202 -218 -229 -242 -300 -310 -363 -373 -431 -444 -455 0
-22 -30 -67 -75 -90 -130 -138 -144 -150 -202 -218 -229 -234 -290 -320 -353 -383 -439 -444 -455 0
-22 -30 -66 -76 -90 -129 -139 -143 -151 -202 -229 -233 -291 -299 -321 -352 -374 -382 -440 -444 0
-22 -30 -66 -76 -90 -129 -139 -143 -151 -202 -220 -233 -244 -299 -311 -362 -374 -429 -440 -453 0
-22 -30 -66 -76 -90 -129 -139 -143 -151 -202 -218 -244 -301 -311 -319 -354 -362 -372 -429 -455 0
-22 -30 -66 -76 -90 -129 -139 -143 -151 -202 -218 -229 -235 -291 -319 -354 -382 -438 -444 -455 0
-22 -30 -65 -78 -90 -127 -140 -142 -153 -202 -227 -234 -291 -299 -320 -353 -374 -382 -439 -446 0
-22 -30 -65 -78 -90 -127 -140 -142 -153 -202 -220 -234 -242 -299 -311 -362 -374 -431 -439 -453 0
-22 -30 -65 -78 -90 -127 -140 -142 -153 -202 -219 -242 -300 -311 -319 -354 -362 -373 -431 -454 0
-22 -30 -65 -78 -90 -127 -140 -142 -153 -202 -219 -227 -235 -291 -319 -354 -382 -438 -446 -454 0
-21 -49 -53 -81 -99 -106 -131 -145 -173 -180 -219 -245 -253 -272 -326 -347 -401 -420 -428 -454 0
-21 -49 -53 -81 -99 -106 -131 -145 -173 -180 -219 -243 -273 -282 -326 -347 -391 -400 -430 -454 0
-21 -49 -53 -81 -99 -106 -131 -145 -173 -180 -218 -245 -272 -283 -324 -349 -390 -401 -428 -455 0
-21 -49 -53 -81 -99 -106 -131 -145 -173 -180 -218 -243 -255 -273 -324 -349 -400 -418 -430 -455 0
-21 -47 -60 -74 -97 -111 -124 -150 -164 -182 -228 -245 -251 -267 -333 -340 -406 -422 -428 -445 0
-21 -47 -60 -74 -97 -111 -124 -150 -164 -182 -228 -234 -275 -282 -333 -340 -391 -398 -439 -445 0
-21 -47 -60 -74 -97 -111 -124 -150 -164 -182 -228 -234 -267 -316 -322 -351 -357 -406 -439 -445 0
-21 -47 -60 -74 -97 -111 -124 -150 -164 -182 -218 -245 -275 -303 -333 -340 -370 -398 -428 -455 0
-21 -47 -60 -74 -97 -111 -124 -150 -164 -182 -218 -245 -267 -294 -322 -351 -379 -406 -428 -455 0
-21 -47 -60 -74 -97 -111 -124 -150 -164 -182 -218 -234 -264 -275 -322 -351 -398 -409 -439 -455 0
-21 -47 -60 -74 -97 -111 -124 -150 -164 -182 -216 -251 -282 -303 -333 -340 -370 -391 -422 -457 0
-21 -47 -60 -74 -97 -111 -124 -150 -164 -182 -216 -251 -267 -294 -316 -357 -379 -406 -422 -457 0
-21 -47 -60 -74 -97 -111 -124 -150 -164 -182 -216 -234 -264 -282 -316 -357 -391 -409 -439 -457 0
-21 -47 -60 -74 -97 -111 -124 -150 -164 -182 -216 -218 -264 -294 -303 -370 -379 -409 -455 -457 0
-21 -47 -60 -74 -97 -111 -124 -150 -164 -182 -216 -218 -234 -267 -333 -340 -406 -439 -455 -457 0
-21 -47 -60 -74 -97 -111 -124 -150 -164 -182 -211 -264 -294 -316 -322 -351 -357 -379 -409 -462 0
-21 -47 -60 -74 -97 -111 -124 -150 -164 -182 -211 -264 -275 -282 -303 -370 -391 -398 -409 -462 0
-21 -47 -60 -74 -97 -111 -124 -150 -164 -182 -211 -245 -251 -294 -303 -370 -379 -422 -428 -462 0
-21 -47 -60 -74 -97 -111 -124 -150 -164 -182 -211 -228 -251 -282 -316 -357 -391 -422 -445 -462 0
-21 -47 -60 -74 -97 -111 -124 -150 -164 -182 -211 -228 -245 -275 -322 -351 -398 -428 -445 -462 0
-21 -45 -62 -74 -96 -112 -124 -150 -162 -184 -230 -243 -251 -267 -333 -340 -406 -422 -430 -443 0
-21 -45 -62 -74 -96 -112 -124 -150 -162 -184 -230 -233 -275 -283 -333 -340 -390 -398 -440 -443 0
-21 -45 -62 -74 -96 -112 -124 -150 -162 -184 -230 -233 -267 -314 -322 -351 -359 -406 -440 -443 0
-21 -45 -62 -74 -96 -112 -124 -150 -162 -184 -219 -243 -275 -302 -333 -340 -371 -398 -430 -454 0
-21 -45 -62 -74 -96 -112 -124 -150 -162 -184 -219 -243 -267 -296 -322 -351 -377 -406 -430 -454 0
-21 -45 -62 -74 -96 -112 -124 -150 -162 -184 -219 -233 -264 -275 -322 -351 -398 -409 -440 -454 0
-21 -45 -62 -74 -96 -112 -124 -150 -162 -184 -216 -251 -283 -302 -333 -340 -371 -390 -422 -457 0
-21 -45 -62 -74 -96 -112 -124 -150 -162 -184 -216 -251 -267 -296 -314 -359 -377 -406 -422 -457 0
-21 -45 -62 -74 -96 -112 -124 -150 -162 -184 -216 -233 -264 -283 -314 -359 -390 -409 -440 -457 0
-21 -45 -62 -74 -96 -112 -124 -150 -162 -184 -216 -219 -264 -296 -302 -371 -377 -409 -454 -457 0
-21 -45 -62 -74 -96 -112 -124 -150 -162 -184 -216 -219 -233 -267 -333 -340 -406 -440 -454 -457 0
-21 -45 -62 -74 -96 -112 -124 -150 -162 -184 -211 -264 -296 -314 -322 -351 -359 -377 -409 -462 0
-21 -45 -62 -74 -96 -112 -124 -150 -162 -184 -211 -264 -275 -283 -302 -371 -390 -398 -409 -462 0
-21 -45 -62 -74 -96 -112 -124 -150 -162 -184 -211 -243 -251 -296 -302 -371 -377 -422 -430 -462 0
-21 -45 -62 -74 -96 -112 -124 -150 -162 -184 -211 -230 -251 -283 -314 -359 -390 -422 -443 -462 0
-21 -45 -62 -74 -96 -112 -124 -150 -162 -184 -211 -230 -243 -275 -322 -351 -398 -430 -443 -462 0
-21 -43 -50 -75 -105 -109 -137 -145 -173 -180 -219 -245 -253 -277 -331 -342 -396 -420 -428 -454 0
-21 -43 -50 -75 -105 -109 -137 -145 -173 -180 -219 -243 -277 -321 -330 -343 -352 -396 -430 -454 0
-21 -43 -50 -75 -105 -109 -137 -145 -173 -180 -218 -245 -279 -320 -331 -342 -353 -394 -428 -455 0
-21 -43 -50 -75 -105 -109 -137 -145 -173 -180 -218 -243 -255 -279 -330 -343 -394 -418 -430 -455 0
-21 -41 -55 -68 -103 -116 -130 -150 -164 -182 -228 -245 -251 -270 -336 -337 -403 -422 -428 -445 0
-21 -41 -55 -68 -103 -116 -130 -150 -164 -182 -228 -234 -281 -287 -336 -337 -386 -392 -439 -445 0
-21 -41 -55 -68 -103 -116 -130 -150 -164 -182 -228 -234 -270 -321 -328 -345 -352 -403 -439 -445 0
-21 -41 -55 -68 -103 -116 -130 -150 -164 -182 -218 -245 -281 -309 -336 -337 -364 -392 -428 -455 0
-21 -41 -55 -68 -103 -116 -130 -150 -164 -182 -218 -245 -270 -300 -328 -345 -373 -403 -428 -455 0
-21 -41 -55 -68 -103 -116 -130 -150 -164 -182 -218 -234 -264 -281 -328 -345 -392 -409 -439 -455 0
-21 -41 -55 -68 -103 -116 -130 -150 -164 -182 -216 -251 -287 -309 -336 -337 -364 -386 -422 -457 0
-21 -41 -55 -68 -103 -116 -130 -150 -164 -182 -216 -251 -270 -300 -321 -352 -373 -403 -422 -457 0
-21 -41 -55 -68 -103 -116 -130 -150 -164 -182 -216 -234 -264 -287 -321 -352 -386 -409 -439 -457 0
-21 -41 -55 -68 -103 -116 -130 -150 -164 -182 -216 -218 -264 -300 -309 -364 -373 -409 -455 -457 0
-21 -41 -55 -68 -103 -116 -130 -150 -164 -182 -216 -218 -234 -270 -336 -337 -403 -439 -455 -457 0
-21 -41 -55 -68 -103 -116 -130 -150 -164 -182 -211 -264 -300 -321 -328 -345 -352 -373 -409 -462 0
-21 -41 -55 -68 -103 -116 -130 -150 -164 -182 -211 -264 -281 -287 -309 -364 -386 -392 -409 -462 0
-21 -41 -55 -68 -103 -116 -130 -150 -164 -182 -211 -245 -251 -300 -309 -364 -373 -422 -428 -462 0
-21 -41 -55 -68 -103 -116 -130 -150 -164 -182 -211 -228 -251 -287 -321 -352 -386 -422 -445 -462 0
-21 -41 -55 -68 -103 -116 -130 -150 -164 -182 -211 -228 -245 -281 -328 -345 -392 -428 -445 -462 0
-21 -40 -56 -68 -101 -118 -130 -150 -162 -184 -230 -243 -251 -270 -336 -337 -403 -422 -430 -443 0
-21 -40 -56 -68 -101 -118 -130 -150 -162 -184 -230 -233 -281 -289 -336 -337 -384 -392 -440 -443 0
-21 -40 -56 -68 -101 -118 -130 -150 -162 -184 -230 -233 -270 -320 -328 -345 -353 -403 -440 -443 0
-21 -40 -56 -68 -101 -118 -130 -150 -162 -184 -219 -243 -281 -307 -336 -337 -366 -392 -430 -454 0
-21 -40 -56 -68 -101 -118 -130 -150 -162 -184 -219 -243 -270 -301 -328 -345 -372 -403 -430 -454 0
-21 -40 -56 -68 -101 -118 -130 -150 -162 -184 -219 -233 -264 -281 -328 -345 -392 -409 -440 -454 0
-21 -40 -56 -68 -101 -118 -130 -150 -162 -184 -216 -251 -289 -307 -336 -337 -366 -384 -422 -457 0
-21 -40 -56 -68 -101 -118 -130 -150 -162 -184 -216 -251 -270 -301 -320 -353 -372 -403 -422 -457 0
-21 -40 -56 -68 -101 -118 -130 -150 -162 -184 -216 -233 -264 -289 -320 -353 -384 -409 -440 -457 0
-21 -40 -56 -68 -101 -118 -130 -150 -162 -184 -216 -219 -264 -301 -307 -366 -372 -409 -454 -457 0
-21 -40 -56 -68 -101 -118 -130 -150 -162 -184 -216 -219 -233 -270 -336 -337 -403 -440 -454 -457 0
-21 -40 -56 -68 -101 -118 -130 -150 -162 -184 -211 -264 -301 -320 -328 -345 -353 -372 -409 -462 0
-21 -40 -56 -68 -101 -118 -130 -150 -162 -184 -211 -264 -281 -289 -307 -366 -384 -392 -409 -462 0
-21 -40 -56 -68 -101 -118 -130 -150 -162 -184 -211 -243 -251 -301 -307 -366 -372 -422 -430 -462 0
-21 -40 -56 -68 -101 -118 -130 -150 -162 -184 -211 -230 -251 -289 -320 -353 -384 -422 -443 -462 0
-21 -40 -56 -68 -101 -118 -130 -150 -162 -184 -211 -230 -243 -281 -328 -345 -392 -430 -443 -462 0
-21 -38 -64 -81 -91 -114 -131 -145 -160 -193 -230 -234 -253 -272 -326 -347 -401 -420 -439 -443 0
-21 -38 -64 -81 -91 -114 -131 -145 -160 -193 -230 -233 -272 -303 -324 -349 -370 -401 -440 -443 0
-21 -38 -64 -81 -91 -114 -131 -145 -160 -193 -228 -234 -273 -302 -326 -347 -371 -400 -439 -445 0
-21 -38 -64 -81 -91 -114 -131 -145 -160 -193 -228 -233 -255 -273 -324 -349 -400 -418 -440 -445 0
-21 -35 -58 -75 -94 -120 -137 -145 -160 -193 -230 -234 -253 -277 -331 -342 -396 -420 -439 -443 0
-21 -35 -58 -75 -94 -120 -137 -145 -160 -193 -230 -233 -279 -300 -331 -342 -373 -394 -440 -443 0
-21 -35 -58 -75 -94 -120 -137 -145 -160 -193 -228 -234 -277 -301 -330 -343 -372 -396 -439 -445 0
-21 -35 -58 -75 -94 -120 -137 -145 -160 -193 -228 -233 -255 -279 -330 -343 -394 -418 -440 -445 0
-21 -33 -74 -81 -86 -124 -131 -145 -150 -203 -230 -234 -243 -282 -316 -357 -391 -430 -439 -443 0
-21 -33 -74 -81 -86 -124 -131 -145 -150 -203 -230 -233 -283 -294 -316 -357 -379 -390 -440 -443 0
-21 -33 -74 -81 -86 -124 -131 -145 -150 -203 -230 -233 -282 -303 -314 -359 -370 -391 -440 -443 0
-21 -33 -74 -81 -86 -124 -131 -145 -150 -203 -228 -234 -283 -302 -316 -357 -371 -390 -439 -445 0
-21 -33 -74 -81 -86 -124 -131 -145 -150 -203 -228 -234 -282 -296 -314 -359 -377 -391 -439 -445 0
-21 -33 -74 -81 -86 -124 -131 -145 -150 -203 -228 -233 -245 -283 -314 -359 -390 -428 -440 -445 0
-21 -33 -74 -81 -86 -124 -131 -145 -150 -203 -219 -243 -294 -302 -316 -357 -371 -379 -430 -454 0
-21 -33 -74 -81 -86 -124 -131 -145 -150 -203 -219 -243 -282 -296 -303 -370 -377 -391 -430 -454 0
-21 -33 -74 -81 -86 -124 -131 -145 -150 -203 -219 -233 -245 -294 -303 -370 -379 -428 -440 -454 0
-21 -33 -74 -81 -86 -124 -131 -145 -150 -203 -219 -228 -245 -296 -302 -371 -377 -428 -445 -454 0
-21 -33 -74 -81 -86 -124 -131 -145 -150 -203 -219 -228 -233 -282 -316 -357 -391 -440 -445 -454 0
-21 -33 -74 -81 -86 -124 -131 -145 -150 -203 -218 -245 -296 -303 -314 -359 -370 -377 -428 -455 0
-21 -33 -74 -81 -86 -124 -131 -145 -150 -203 -218 -245 -283 -294 -302 -371 -379 -390 -428 -455 0
-21 -33 -74 -81 -86 -124 -131 -145 -150 -203 -218 -234 -243 -296 -302 -371 -377 -430 -439 -455 0
-21 -33 -74 -81 -86 -124 -131 -145 -150 -203 -218 -230 -243 -294 -303 -370 -379 -430 -443 -455 0
-21 -33 -74 -81 -86 -124 -131 -145 -150 -203 -218 -230 -234 -283 -314 -359 -390 -439 -443 -455 0
-21 -33 -72 -83 -86 -122 -133 -143 -152 -203 -230 -233 -282 -305 -312 -361 -368 -391 -440 -443 0
-21 -33 -72 -83 -86 -122 -133 -143 -152 -203 -221 -233 -245 -292 -305 -368 -381 -428 -440 -452 0
-21 -33 -72 -83 -86 -122 -133 -143 -152 -203 -218 -245 -285 -292 -302 -371 -381 -388 -428 -455 0
-21 -33 -72 -83 -86 -122 -133 -143 -152 -203 -218 -230 -236 -285 -312 -361 -388 -437 -443 -455 0
-21 -33 -70 -84 -86 -121 -135 -142 -154 -203 -228 -234 -283 -305 -312 -361 -368 -390 -439 -445 0
-21 -33 -70 -84 -86 -121 -135 -142 -154 -203 -221 -234 -243 -292 -305 -368 -381 -430 -439 -452 0
-21 -33 -70 -84 -86 -121 -135 -142 -154 -203 -219 -243 -285 -292 -303 -370 -381 -388 -430 -454 0
-21 -33 -70 -84 -86 -121 -135 -142 -154 -203 -219 -228 -236 -285 -312 -361 -388 -437 -445 -454 0
-21 -30 -68 -75 -89 -130 -137 -145 -150 -203 -230 -234 -243 -287 -321 -352 -386 -430 -439 -443 0
-21 -30 -68 -75 -89 -130 -137 -145 -150 -203 -230 -233 -289 -300 -321 -352 -373 -384 -440 -443 0
-21 -30 -68 -75 -89 -130 -137 -145 -150 -203 -230 -233 -287 -309 -320 -353 -364 -386 -440 -443 0
-21 -30 -68 -75 -89 -130 -137 -145 -150 -203 -228 -234 -289 -307 -321 -352 -366 -384 -439 -445 0
-21 -30 -68 -75 -89 -130 -137 -145 -150 -203 -228 -234 -287 -301 -320 -353 -372 -386 -439 -445 0
-21 -30 -68 -75 -89 -130 -137 -145 -150 -203 -228 -233 -245 -289 -320 -353 -384 -428 -440 -445 0
-21 -30 -68 -75 -89 -130 -137 -145 -150 -203 -219 -243 -300 -307 -321 -352 -366 -373 -430 -454 0
-21 -30 -68 -75 -89 -130 -137 -145 -150 -203 -219 -243 -287 -301 -309 -364 -372 -386 -430 -454 0
-21 -30 -68 -75 -89 -130 -137 -145 -150 -203 -219 -233 -245 -300 -309 -364 -373 -428 -440 -454 0
-21 -30 -68 -75 -89 -130 -137 -145 -150 -203 -219 -228 -245 -301 -307 -366 -372 -428 -445 -454 0
-21 -30 -68 -75 -89 -130 -137 -145 -150 -203 -219 -228 -233 -287 -321 -352 -386 -440 -445 -454 0
-21 -30 -68 -75 -89 -130 -137 -145 -150 -203 -218 -245 -301 -309 -320 -353 -364 -372 -428 -455 0
-21 -30 -68 -75 -89 -130 -137 -145 -150 -203 -218 -245 -289 -300 -307 -366 -373 -384 -428 -455 0
-21 -30 -68 -75 -89 -130 -137 -145 -150 -203 -218 -234 -243 -301 -307 -366 -372 -430 -439 -455 0
-21 -30 -68 -75 -89 -130 -137 -145 -150 -203 -218 -230 -243 -300 -309 -364 -373 -430 -443 -455 0
-21 -30 -68 -75 -89 -130 -137 -145 -150 -203 -218 -230 -234 -289 -320 -353 -384 -439 -443 -455 0
-21 -30 -66 -77 -89 -128 -139 -143 -152 -203 -230 -233 -291 -298 -321 -352 -375 -382 -440 -443 0
-21 -30 -66 -77 -89 -128 -139 -143 -152 -203 -221 -233 -245 -298 -311 -362 -375 -428 -440 -452 0
-21 -30 -66 -77 -89 -128 -139 -143 -152 -203 -218 -245 -301 -311 -318 -355 -362 -372 -428 -455 0
-21 -30 -66 -77 -89 -128 -139 -143 -152 -203 -218 -230 -236 -291 -318 -355 -382 -437 -443 -455 0
-21 -30 -65 -79 -89 -126 -140 -142 -154 -203 -228 -234 -291 -298 -320 -353 -375 -382 -439 -445 0
-21 -30 -65 -79 -89 -126 -140 -142 -154 -203 -221 -234 -243 -298 -311 -362 -375 -430 -439 -452 0
-21 -30 -65 -79 -89 -126 -140 -142 -154 -203 -219 -243 -300 -311 -318 -355 -362 -373 -430 -454 0
-21 -30 -65 -79 -89 -126 -140 -142 -154 -203 -219 -228 -236 -291 -318 -355 -382 -437 -445 -454 0
-20 -48 -62 -69 -99 -113 -121 -155 -162 -181 -227 -243 -256 -267 -334 -339 -406 -417 -430 -446 0
-20 -48 -62 -69 -99 -113 -121 -155 -162 -181 -227 -236 -272 -284 -334 -339 -389 -401 -437 -446 0
-20 -48 -62 -69 -99 -113 -121 -155 -162 -181 -227 -236 -267 -314 -327 -346 -359 -406 -437 -446 0
-20 -48 -62 -69 -99 -113 -121 -155 -162 -181 -220 -243 -272 -305 -334 -339 -368 -401 -430 -453 0
-20 -48 -62 -69 -99 -113 -121 -155 -162 -181 -220 -243 -267 -293 -327 -346 -380 -406 -430 -453 0
-20 -48 -62 -69 -99 -113 -121 -155 -162 -181 -220 -236 -265 -272 -327 -346 -401 -408 -437 -453 0
-20 -48 -62 -69 -99 -113 -121 -155 -162 -181 -213 -256 -284 -305 -334 -339 -368 -389 -417 -460 0
-20 -48 -62 -69 -99 -113 -121 -155 -162 -181 -213 -256 -267 -293 -314 -359 -380 -406 -417 -460 0
-20 -48 -62 -69 -99 -113 -121 -155 -162 -181 -213 -236 -265 -284 -314 -359 -389 -408 -437 -460 0
-20 -48 -62 -69 -99 -113 -121 -155 -162 -181 -213 -220 -265 -293 -305 -368 -380 -408 -453 -460 0
-20 -48 -62 -69 -99 -113 -121 -155 -162 -181 -213 -220 -236 -267 -334 -339 -406 -437 -453 -460 0
-20 -48 -62 -69 -99 -113 -121 -155 -162 -181 -211 -265 -293 -314 -327 -346 -359 -380 -408 -462 0
-20 -48 -62 -69 -99 -113 -121 -155 -162 -181 -211 -265 -272 -284 -305 -368 -389 -401 -408 -462 0
-20 -48 -62 -69 -99 -113 -121 -155 -162 -181 -211 -243 -256 -293 -305 -368 -380 -417 -430 -462 0
-20 -48 -62 -69 -99 -113 -121 -155 -162 -181 -211 -227 -256 -284 -314 -359 -389 -417 -446 -462 0
-20 -48 -62 -69 -99 -113 -121 -155 -162 -181 -211 -227 -243 -272 -327 -346 -401 -430 -446 -462 0
-20 -47 -63 -69 -98 -114 -121 -155 -161 -182 -228 -242 -256 -267 -334 -339 -406 -417 -431 -445 0
-20 -47 -63 -69 -98 -114 -121 -155 -161 -182 -228 -235 -272 -285 -334 -339 -388 -401 -438 -445 0
-20 -47 -63 -69 -98 -114 -121 -155 -161 -182 -228 -235 -267 -313 -327 -346 -360 -406 -438 -445 0
-20 -47 -63 -69 -98 -114 -121 -155 -161 -182 -221 -242 -272 -304 -334 -339 -369 -401 -431 -452 0
-20 -47 -63 -69 -98 -114 -121 -155 -161 -182 -221 -242 -267 -294 -327 -346 -379 -406 -431 -452 0
-20 -47 -63 -69 -98 -114 -121 -155 -161 -182 -221 -235 -265 -272 -327 -346 -401 -408 -438 -452 0
-20 -47 -63 -69 -98 -114 -121 -155 -161 -182 -213 -256 -285 -304 -334 -339 -369 -388 -417 -460 0
-20 -47 -63 -69 -98 -114 -121 -155 -161 -182 -213 -256 -267 -294 -313 -360 -379 -406 -417 -460 0
-20 -47 -63 -69 -98 -114 -121 -155 -161 -182 -213 -235 -265 -285 -313 -360 -388 -408 -438 -460 0
-20 -47 -63 -69 -98 -114 -121 -155 -161 -182 -213 -221 -265 -294 -304 -369 -379 -408 -452 -460 0
-20 -47 -63 -69 -98 -114 -121 -155 -161 -182 -213 -221 -235 -267 -334 -339 -406 -438 -452 -460 0
-20 -47 -63 -69 -98 -114 -121 -155 -161 -182 -211 -265 -294 -313 -327 -346 -360 -379 -408 -462 0
-20 -47 -63 -69 -98 -114 -121 -155 -161 -182 -211 -265 -272 -285 -304 -369 -388 -401 -408 -462 0
-20 -47 -63 -69 -98 -114 -121 -155 -161 -182 -211 -242 -256 -294 -304 -369 -379 -417 -431 -462 0
-20 -47 -63 -69 -98 -114 -121 -155 -161 -182 -211 -228 -256 -285 -313 -360 -388 -417 -445 -462 0
-20 -47 -63 -69 -98 -114 -121 -155 -161 -182 -211 -228 -242 -272 -327 -346 -401 -431 -445 -462 0
-20 -44 -52 -84 -96 -106 -136 -142 -174 -185 -221 -243 -252 -274 -324 -349 -399 -421 -430 -452 0
-20 -44 -52 -84 -96 -106 -136 -142 -174 -185 -221 -242 -275 -284 -324 -349 -389 -398 -431 -452 0
-20 -44 -52 -84 -96 -106 -136 -142 -174 -185 -220 -243 -274 -285 -323 -350 -388 -399 -430 -453 0
-20 -44 -52 -84 -96 -106 -136 -142 -174 -185 -220 -242 -253 -275 -323 -350 -398 -420 -431 -453 0
-20 -43 -57 -65 -104 -118 -125 -155 -162 -181 -227 -243 -256 -269 -336 -337 -404 -417 -430 -446 0
-20 -43 -57 -65 -104 -118 -125 -155 -162 -181 -227 -236 -276 -289 -336 -337 -384 -397 -437 -446 0
-20 -43 -57 -65 -104 -118 -125 -155 -162 -181 -227 -236 -269 -319 -331 -342 -354 -404 -437 -446 0
-20 -43 -57 -65 -104 -118 -125 -155 -162 -181 -220 -243 -276 -310 -336 -337 -363 -397 -430 -453 0
-20 -43 -57 -65 -104 -118 -125 -155 -162 -181 -220 -243 -269 -298 -331 -342 -375 -404 -430 -453 0
-20 -43 -57 -65 -104 -118 -125 -155 -162 -181 -220 -236 -265 -276 -331 -342 -397 -408 -437 -453 0
-20 -43 -57 -65 -104 -118 -125 -155 -162 -181 -213 -256 -289 -310 -336 -337 -363 -384 -417 -460 0
-20 -43 -57 -65 -104 -118 -125 -155 -162 -181 -213 -256 -269 -298 -319 -354 -375 -404 -417 -460 0
-20 -43 -57 -65 -104 -118 -125 -155 -162 -181 -213 -236 -265 -289 -319 -354 -384 -408 -437 -460 0
-20 -43 -57 -65 -104 -118 -125 -155 -162 -181 -213 -220 -265 -298 -310 -363 -375 -408 -453 -460 0
-20 -43 -57 -65 -104 -118 -125 -155 -162 -181 -213 -220 -236 -269 -336 -337 -404 -437 -453 -460 0
-20 -43 -57 -65 -104 -118 -125 -155 -162 -181 -211 -265 -298 -319 -331 -342 -354 -375 -408 -462 0
-20 -43 -57 -65 -104 -118 -125 -155 -162 -181 -211 -265 -276 -289 -310 -363 -384 -397 -408 -462 0
-20 -43 -57 -65 -104 -118 -125 -155 -162 -181 -211 -243 -256 -298 -310 -363 -375 -417 -430 -462 0
-20 -43 -57 -65 -104 -118 -125 -155 -162 -181 -211 -227 -256 -289 -319 -354 -384 -417 -446 -462 0
-20 -43 -57 -65 -104 -118 -125 -155 -162 -181 -211 -227 -243 -276 -331 -342 -397 -430 -446 -462 0
-20 -42 -58 -65 -103 -119 -125 -155 -161 -182 -228 -242 -256 -269 -336 -337 -404 -417 -431 -445 0
-20 -42 -58 -65 -103 -119 -125 -155 -161 -182 -228 -235 -276 -290 -336 -337 -383 -397 -438 -445 0
-20 -42 -58 -65 -103 -119 -125 -155 -161 -182 -228 -235 -269 -318 -331 -342 -355 -404 -438 -445 0
-20 -42 -58 -65 -103 -119 -125 -155 -161 -182 -221 -242 -276 -309 -336 -337 -364 -397 -431 -452 0
-20 -42 -58 -65 -103 -119 -125 -155 -161 -182 -221 -242 -269 -299 -331 -342 -374 -404 -431 -452 0
-20 -42 -58 -65 -103 -119 -125 -155 -161 -182 -221 -235 -265 -276 -331 -342 -397 -408 -438 -452 0
-20 -42 -58 -65 -103 -119 -125 -155 -161 -182 -213 -256 -290 -309 -336 -337 -364 -383 -417 -460 0
-20 -42 -58 -65 -103 -119 -125 -155 -161 -182 -213 -256 -269 -299 -318 -355 -374 -404 -417 -460 0
-20 -42 -58 -65 -103 -119 -125 -155 -161 -182 -213 -235 -265 -290 -318 -355 -383 -408 -438 -460 0
-20 -42 -58 -65 -103 -119 -125 -155 -161 -182 -213 -221 -265 -299 -309 -364 -374 -408 -452 -460 0
-20 -42 -58 -65 -103 -119 -125 -155 -161 -182 -213 -221 -235 -269 -336 -337 -404 -438 -452 -460 0
-20 -42 -58 -65 -103 -119 -125 -155 -161 -182 -211 -265 -299 -318 -331 -342 -355 -374 -408 -462 0
-20 -42 -58 -65 -103 -119 -125 -155 -161 -182 -211 -265 -276 -290 -309 -364 -383 -397 -408 -462 0
-20 -42 -58 -65 -103 -119 -125 -155 -161 -182 -211 -242 -256 -299 -309 -364 -374 -417 -431 -462 0
-20 -42 -58 -65 -103 -119 -125 -155 -161 -182 -211 -228 -256 -290 -318 -355 -383 -417 -445 -462 0
-20 -42 -58 -65 -103 -119 -125 -155 -161 -182 -211 -228 -242 -276 -331 -342 -397 -431 -445 -462 0
-20 -40 -50 -80 -100 -108 -140 -142 -174 -185 -221 -243 -252 -279 -329 -344 -394 -421 -430 -452 0
-20 -40 -50 -80 -100 -108 -140 -142 -174 -185 -221 -242 -279 -319 -328 -345 -354 -394 -431 -452 0
-20 -40 -50 -80 -100 -108 -140 -142 -174 -185 -220 -243 -280 -318 -329 -344 -355 -393 -430 -453 0
-20 -40 -50 -80 -100 -108 -140 -142 -174 -185 -220 -242 -253 -280 -328 -345 -393 -420 -431 -453 0
-20 -37 -59 -84 -91 -111 -136 -142 -165 -194 -228 -236 -252 -274 -324 -349 -399 -421 -437 -445 0
-20 -37 -59 -84 -91 -111 -136 -142 -165 -194 -228 -235 -274 -305 -323 -350 -368 -399 -438 -445 0
-20 -37 -59 -84 -91 -111 -136 -142 -165 -194 -227 -236 -275 -304 -324 -349 -369 -398 -437 -446 0
-20 -37 -59 -84 -91 -111 -136 -142 -165 -194 -227 -235 -253 -275 -323 -350 -398 -420 -438 -446 0
-20 -35 -55 -80 -93 -115 -140 -142 -165 -194 -228 -236 -252 -279 -329 -344 -394 -421 -437 -445 0
-20 -35 -55 -80 -93 -115 -140 -142 -165 -194 -228 -235 -280 -298 -329 -344 -375 -393 -438 -445 0
-20 -35 -55 -80 -93 -115 -140 -142 -165 -194 -227 -236 -279 -299 -328 -345 -374 -394 -437 -446 0
-20 -35 -55 -80 -93 -115 -140 -142 -165 -194 -227 -235 -253 -280 -328 -345 -393 -420 -438 -446 0
-20 -32 -73 -81 -86 -124 -132 -145 -151 -204 -228 -235 -284 -302 -317 -356 -371 -389 -438 -445 0
-20 -32 -73 -81 -86 -124 -132 -145 -151 -204 -220 -243 -282 -297 -304 -369 -376 -391 -430 -453 0
-20 -32 -73 -81 -86 -124 -132 -145 -151 -204 -220 -228 -233 -282 -317 -356 -391 -440 -445 -453 0
-20 -32 -73 -81 -86 -124 -132 -145 -151 -204 -218 -235 -243 -297 -302 -371 -376 -430 -438 -455 0
-20 -32 -72 -82 -86 -123 -133 -144 -152 -204 -227 -236 -285 -302 -317 -356 -371 -388 -437 -446 0
-20 -32 -72 -82 -86 -123 -133 -144 -152 -204 -221 -242 -282 -297 -305 -368 -376 -391 -431 -452 0
-20 -32 -72 -82 -86 -123 -133 -144 -152 -204 -221 -227 -233 -282 -317 -356 -391 -440 -446 -452 0
-20 -32 -72 -82 -86 -123 -133 -144 -152 -204 -218 -236 -242 -297 -302 -371 -376 -431 -437 -455 0
-20 -32 -69 -84 -86 -121 -136 -142 -155 -204 -228 -236 -242 -284 -314 -359 -389 -431 -437 -445 0
-20 -32 -69 -84 -86 -121 -136 -142 -155 -204 -228 -235 -285 -293 -314 -359 -380 -388 -438 -445 0
-20 -32 -69 -84 -86 -121 -136 -142 -155 -204 -228 -235 -284 -305 -313 -360 -368 -389 -438 -445 0
-20 -32 -69 -84 -86 -121 -136 -142 -155 -204 -227 -236 -285 -304 -314 -359 -369 -388 -437 -446 0
-20 -32 -69 -84 -86 -121 -136 -142 -155 -204 -227 -236 -284 -294 -313 -360 -379 -389 -437 -446 0
-20 -32 -69 -84 -86 -121 -136 -142 -155 -204 -227 -235 -243 -285 -313 -360 -388 -430 -438 -446 0
-20 -32 -69 -84 -86 -121 -136 -142 -155 -204 -221 -242 -293 -304 -314 -359 -369 -380 -431 -452 0
-20 -32 -69 -84 -86 -121 -136 -142 -155 -204 -221 -242 -284 -294 -305 -368 -379 -389 -431 -452 0
-20 -32 -69 -84 -86 -121 -136 -142 -155 -204 -221 -235 -243 -293 -305 -368 -380 -430 -438 -452 0
-20 -32 -69 -84 -86 -121 -136 -142 -155 -204 -221 -227 -243 -294 -304 -369 -379 -430 -446 -452 0
-20 -32 -69 -84 -86 -121 -136 -142 -155 -204 -221 -227 -235 -284 -314 -359 -389 -438 -446 -452 0
-20 -32 -69 -84 -86 -121 -136 -142 -155 -204 -220 -243 -294 -305 -313 -360 -368 -379 -430 -453 0
-20 -32 -69 -84 -86 -121 -136 -142 -155 -204 -220 -243 -285 -293 -304 -369 -380 -388 -430 -453 0
-20 -32 -69 -84 -86 -121 -136 -142 -155 -204 -220 -236 -242 -294 -304 -369 -379 -431 -437 -453 0
-20 -32 -69 -84 -86 -121 -136 -142 -155 -204 -220 -228 -242 -293 -305 -368 -380 -431 -445 -453 0
-20 -32 -69 -84 -86 -121 -136 -142 -155 -204 -220 -228 -236 -285 -313 -360 -388 -437 -445 -453 0
-20 -30 -68 -76 -88 -129 -137 -145 -151 -204 -228 -235 -286 -301 -319 -354 -372 -387 -438 -445 0
-20 -30 -68 -76 -88 -129 -137 -145 -151 -204 -220 -243 -299 -306 -321 -352 -367 -374 -430 -453 0
-20 -30 -68 -76 -88 -129 -137 -145 -151 -204 -220 -228 -233 -286 -321 -352 -387 -440 -445 -453 0
-20 -30 -68 -76 -88 -129 -137 -145 -151 -204 -218 -235 -243 -301 -306 -367 -372 -430 -438 -455 0
-20 -30 -67 -77 -88 -128 -138 -144 -152 -204 -227 -236 -286 -301 -318 -355 -372 -387 -437 -446 0
-20 -30 -67 -77 -88 -128 -138 -144 -152 -204 -221 -242 -298 -306 -321 -352 -367 -375 -431 -452 0
-20 -30 -67 -77 -88 -128 -138 -144 -152 -204 -221 -227 -233 -286 -321 -352 -387 -440 -446 -452 0
-20 -30 -67 -77 -88 -128 -138 -144 -152 -204 -218 -236 -242 -301 -306 -367 -372 -431 -437 -455 0
-20 -30 -65 -80 -88 -125 -140 -142 -155 -204 -228 -236 -242 -289 -319 -354 -384 -431 -437 -445 0
-20 -30 -65 -80 -88 -125 -140 -142 -155 -204 -228 -235 -290 -298 -319 -354 -375 -383 -438 -445 0
-20 -30 -65 -80 -88 -125 -140 -142 -155 -204 -228 -235 -289 -310 -318 -355 -363 -384 -438 -445 0
-20 -30 -65 -80 -88 -125 -140 -142 -155 -204 -227 -236 -290 -309 -319 -354 -364 -383 -437 -446 0
-20 -30 -65 -80 -88 -125 -140 -142 -155 -204 -227 -236 -289 -299 -318 -355 -374 -384 -437 -446 0
-20 -30 -65 -80 -88 -125 -140 -142 -155 -204 -227 -235 -243 -290 -318 -355 -383 -430 -438 -446 0
-20 -30 -65 -80 -88 -125 -140 -142 -155 -204 -221 -242 -298 -309 -319 -354 -364 -375 -431 -452 0
-20 -30 -65 -80 -88 -125 -140 -142 -155 -204 -221 -242 -289 -299 -310 -363 -374 -384 -431 -452 0
-20 -30 -65 -80 -88 -125 -140 -142 -155 -204 -221 -235 -243 -298 -310 -363 -375 -430 -438 -452 0
-20 -30 -65 -80 -88 -125 -140 -142 -155 -204 -221 -227 -243 -299 -309 -364 -374 -430 -446 -452 0
-20 -30 -65 -80 -88 -125 -140 -142 -155 -204 -221 -227 -235 -289 -319 -354 -384 -438 -446 -452 0
-20 -30 -65 -80 -88 -125 -140 -142 -155 -204 -220 -243 -299 -310 -318 -355 -363 -374 -430 -453 0
-20 -30 -65 -80 -88 -125 -140 -142 -155 -204 -220 -243 -290 -298 -309 -364 -375 -383 -430 -453 0
-20 -30 -65 -80 -88 -125 -140 -142 -155 -204 -220 -236 -242 -299 -309 -364 -374 -431 -437 -453 0
-20 -30 -65 -80 -88 -125 -140 -142 -155 -204 -220 -228 -242 -298 -310 -363 -375 -431 -445 -453 0
-20 -30 -65 -80 -88 -125 -140 -142 -155 -204 -220 -228 -236 -290 -318 -355 -383 -437 -445 -453 0
-19 -46 -60 -69 -99 -113 -122 -155 -164 -183 -229 -245 -256 -267 -335 -338 -406 -417 -428 -444 0
-19 -46 -60 -69 -99 -113 -122 -155 -164 -183 -229 -236 -273 -284 -335 -338 -389 -400 -437 -444 0
-19 -46 -60 -69 -99 -113 -122 -155 -164 -183 -229 -236 -267 -316 -327 -346 -357 -406 -437 -444 0
-19 -46 -60 -69 -99 -113 -122 -155 -164 -183 -220 -245 -273 -305 -335 -338 -368 -400 -428 -453 0
-19 -46 -60 -69 -99 -113 -122 -155 -164 -183 -220 -245 -267 -295 -327 -346 -378 -406 -428 -453 0
-19 -46 -60 -69 -99 -113 -122 -155 -164 -183 -220 -236 -266 -273 -327 -346 -400 -407 -437 -453 0
-19 -46 -60 -69 -99 -113 -122 -155 -164 -183 -214 -256 -284 -305 -335 -338 -368 -389 -417 -459 0
-19 -46 -60 -69 -99 -113 -122 -155 -164 -183 -214 -256 -267 -295 -316 -357 -378 -406 -417 -459 0
-19 -46 -60 -69 -99 -113 -122 -155 -164 -183 -214 -236 -266 -284 -316 -357 -389 -407 -437 -459 0
-19 -46 -60 -69 -99 -113 -122 -155 -164 -183 -214 -220 -266 -295 -305 -368 -378 -407 -453 -459 0
-19 -46 -60 -69 -99 -113 -122 -155 -164 -183 -214 -220 -236 -267 -335 -338 -406 -437 -453 -459 0
-19 -46 -60 -69 -99 -113 -122 -155 -164 -183 -211 -266 -295 -316 -327 -346 -357 -378 -407 -462 0
-19 -46 -60 -69 -99 -113 -122 -155 -164 -183 -211 -266 -273 -284 -305 -368 -389 -400 -407 -462 0
-19 -46 -60 -69 -99 -113 -122 -155 -164 -183 -211 -245 -256 -295 -305 -368 -378 -417 -428 -462 0
-19 -46 -60 -69 -99 -113 -122 -155 -164 -183 -211 -229 -256 -284 -316 -357 -389 -417 -444 -462 0
-19 -46 -60 -69 -99 -113 -122 -155 -164 -183 -211 -229 -245 -273 -327 -346 -400 -428 -444 -462 0
-19 -45 -61 -69 -98 -114 -122 -155 -163 -184 -230 -244 -256 -267 -335 -338 -406 -417 -429 -443 0
-19 -45 -61 -69 -98 -114 -122 -155 -163 -184 -230 -235 -273 -285 -335 -338 -388 -400 -438 -443 0
-19 -45 -61 -69 -98 -114 -122 -155 -163 -184 -230 -235 -267 -315 -327 -346 -358 -406 -438 -443 0
-19 -45 -61 -69 -98 -114 -122 -155 -163 -184 -221 -244 -273 -304 -335 -338 -369 -400 -429 -452 0
-19 -45 -61 -69 -98 -114 -122 -155 -163 -184 -221 -244 -267 -296 -327 -346 -377 -406 -429 -452 0
-19 -45 -61 -69 -98 -114 -122 -155 -163 -184 -221 -235 -266 -273 -327 -346 -400 -407 -438 -452 0
-19 -45 -61 -69 -98 -114 -122 -155 -163 -184 -214 -256 -285 -304 -335 -338 -369 -388 -417 -459 0
-19 -45 -61 -69 -98 -114 -122 -155 -163 -184 -214 -256 -267 -296 -315 -358 -377 -406 -417 -459 0
-19 -45 -61 -69 -98 -114 -122 -155 -163 -184 -214 -235 -266 -285 -315 -358 -388 -407 -438 -459 0
-19 -45 -61 -69 -98 -114 -122 -155 -163 -184 -214 -221 -266 -296 -304 -369 -377 -407 -452 -459 0
-19 -45 -61 -69 -98 -114 -122 -155 -163 -184 -214 -221 -235 -267 -335 -338 -406 -438 -452 -459 0
-19 -45 -61 -69 -98 -114 -122 -155 -163 -184 -211 -266 -296 -315 -327 -346 -358 -377 -407 -462 0
-19 -45 -61 -69 -98 -114 -122 -155 -163 -184 -211 -266 -273 -285 -304 -369 -388 -400 -407 -462 0
-19 -45 -61 -69 -98 -114 -122 -155 -163 -184 -211 -244 -256 -296 -304 -369 -377 -417 -429 -462 0
-19 -45 -61 -69 -98 -114 -122 -155 -163 -184 -211 -230 -256 -285 -315 -358 -388 -417 -443 -462 0
-19 -45 -61 -69 -98 -114 -122 -155 -163 -184 -211 -230 -244 -273 -327 -346 -400 -429 -443 -462 0
-19 -44 -51 -83 -97 -106 -136 -143 -175 -185 -221 -245 -254 -274 -326 -347 -399 -419 -428 -452 0
-19 -44 -51 -83 -97 -106 -136 -143 -175 -185 -221 -244 -275 -284 -326 -347 -389 -398 -429 -452 0
-19 -44 -51 -83 -97 -106 -136 -143 -175 -185 -220 -245 -274 -285 -325 -348 -388 -399 -428 -453 0
-19 -44 -51 -83 -97 -106 -136 -143 -175 -185 -220 -244 -255 -275 -325 -348 -398 -418 -429 -453 0
-19 -43 -57 -66 -102 -116 -125 -155 -164 -183 -229 -245 -256 -268 -336 -337 -405 -417 -428 -444 0
-19 -43 -57 -66 -102 -116 -125 -155 -164 -183 -229 -236 -276 -287 -336 -337 -386 -397 -437 -444 0
-19 -43 -57 -66 -102 -116 -125 -155 -164 -183 -229 -236 -268 -319 -330 -343 -354 -405 -437 -444 0
-19 -43 -57 -66 -102 -116 -125 -155 -164 -183 -220 -245 -276 -308 -336 -337 -365 -397 -428 -453 0
-19 -43 -57 -66 -102 -116 -125 -155 -164 -183 -220 -245 -268 -298 -330 -343 -375 -405 -428 -453 0
-19 -43 -57 -66 -102 -116 -125 -155 -164 -183 -220 -236 -266 -276 -330 -343 -397 -407 -437 -453 0
-19 -43 -57 -66 -102 -116 -125 -155 -164 -183 -214 -256 -287 -308 -336 -337 -365 -386 -417 -459 0
-19 -43 -57 -66 -102 -116 -125 -155 -164 -183 -214 -256 -268 -298 -319 -354 -375 -405 -417 -459 0
-19 -43 -57 -66 -102 -116 -125 -155 -164 -183 -214 -236 -266 -287 -319 -354 -386 -407 -437 -459 0
-19 -43 -57 -66 -102 -116 -125 -155 -164 -183 -214 -220 -266 -298 -308 -365 -375 -407 -453 -459 0
-19 -43 -57 -66 -102 -116 -125 -155 -164 -183 -214 -220 -236 -268 -336 -337 -405 -437 -453 -459 0
-19 -43 -57 -66 -102 -116 -125 -155 -164 -183 -211 -266 -298 -319 -330 -343 -354 -375 -407 -462 0
-19 -43 -57 -66 -102 -116 -125 -155 -164 -183 -211 -266 -276 -287 -308 -365 -386 -397 -407 -462 0
-19 -43 -57 -66 -102 -116 -125 -155 -164 -183 -211 -245 -256 -298 -308 -365 -375 -417 -428 -462 0
-19 -43 -57 -66 -102 -116 -125 -155 -164 -183 -211 -229 -256 -287 -319 -354 -386 -417 -444 -462 0
-19 -43 -57 -66 -102 -116 -125 -155 -164 -183 -211 -229 -245 -276 -330 -343 -397 -428 -444 -462 0
-19 -42 -58 -66 -101 -117 -125 -155 -163 -184 -230 -244 -256 -268 -336 -337 -405 -417 -429 -443 0
-19 -42 -58 -66 -101 -117 -125 -155 -163 -184 -230 -235 -276 -288 -336 -337 -385 -397 -438 -443 0
-19 -42 -58 -66 -101 -117 -125 -155 -163 -184 -230 -235 -268 -318 -330 -343 -355 -405 -438 -443 0
-19 -42 -58 -66 -101 -117 -125 -155 -163 -184 -221 -244 -276 -307 -336 -337 -366 -397 -429 -452 0
-19 -42 -58 -66 -101 -117 -125 -155 -163 -184 -221 -244 -268 -299 -330 -343 -374 -405 -429 -452 0
-19 -42 -58 -66 -101 -117 -125 -155 -163 -184 -221 -235 -266 -276 -330 -343 -397 -407 -438 -452 0
-19 -42 -58 -66 -101 -117 -125 -155 -163 -184 -214 -256 -288 -307 -336 -337 -366 -385 -417 -459 0
-19 -42 -58 -66 -101 -117 -125 -155 -163 -184 -214 -256 -268 -299 -318 -355 -374 -405 -417 -459 0
-19 -42 -58 -66 -101 -117 -125 -155 -163 -184 -214 -235 -266 -288 -318 -355 -385 -407 -438 -459 0
-19 -42 -58 -66 -101 -117 -125 -155 -163 -184 -214 -221 -266 -299 -307 -366 -374 -407 -452 -459 0
-19 -42 -58 -66 -101 -117 -125 -155 -163 -184 -214 -221 -235 -268 -336 -337 -405 -438 -452 -459 0
-19 -42 -58 -66 -101 -117 -125 -155 -163 -184 -211 -266 -299 -318 -330 -343 -355 -374 -407 -462 0
-19 -42 -58 -66 -101 -117 -125 -155 -163 -184 -211 -266 -276 -288 -307 -366 -385 -397 -407 -462 0
-19 -42 -58 -66 -101 -117 -125 -155 -163 -184 -211 -244 -256 -299 -307 -366 -374 -417 -429 -462 0
-19 -42 -58 -66 -101 -117 -125 -155 -163 -184 -211 -230 -256 -288 -318 -355 -385 -417 -443 -462 0
-19 -42 -58 -66 -101 -117 -125 -155 -163 -184 -211 -230 -244 -276 -330 -343 -397 -429 -443 -462 0
-19 -41 -50 -80 -100 -107 -139 -143 -175 -185 -221 -245 -254 -277 -329 -344 -396 -419 -428 -452 0
-19 -41 -50 -80 -100 -107 -139 -143 -175 -185 -221 -244 -277 -319 -328 -345 -354 -396 -429 -452 0
-19 -41 -50 -80 -100 -107 -139 -143 -175 -185 -220 -245 -278 -318 -329 -344 -355 -395 -428 -453 0
-19 -41 -50 -80 -100 -107 -139 -143 -175 -185 -220 -244 -255 -278 -328 -345 -395 -418 -429 -453 0
-19 -36 -59 -83 -91 -112 -136 -143 -165 -195 -230 -236 -254 -274 -326 -347 -399 -419 -437 -443 0
-19 -36 -59 -83 -91 -112 -136 -143 -165 -195 -230 -235 -274 -305 -325 -348 -368 -399 -438 -443 0
-19 -36 -59 -83 -91 -112 -136 -143 -165 -195 -229 -236 -275 -304 -326 -347 -369 -398 -437 -444 0
-19 -36 -59 -83 -91 -112 -136 -143 -165 -195 -229 -235 -255 -275 -325 -348 -398 -418 -438 -444 0
-19 -35 -56 -80 -92 -115 -139 -143 -165 -195 -230 -236 -254 -277 -329 -344 -396 -419 -437 -443 0
-19 -35 -56 -80 -92 -115 -139 -143 -165 -195 -230 -235 -278 -298 -329 -344 -375 -395 -438 -443 0
-19 -35 -56 -80 -92 -115 -139 -143 -165 -195 -229 -236 -277 -299 -328 -345 -374 -396 -437 -444 0
-19 -35 -56 -80 -92 -115 -139 -143 -165 -195 -229 -235 -255 -278 -328 -345 -395 -418 -438 -444 0
-19 -31 -71 -81 -86 -124 -134 -145 -153 -205 -230 -235 -284 -303 -317 -356 -370 -389 -438 -443 0
-19 -31 -71 -81 -86 -124 -134 -145 -153 -205 -220 -245 -283 -297 -304 -369 -376 -390 -428 -453 0
-19 -31 -71 -81 -86 -124 -134 -145 -153 -205 -220 -230 -234 -283 -317 -356 -390 -439 -443 -453 0
-19 -31 -71 -81 -86 -124 -134 -145 -153 -205 -219 -235 -245 -297 -303 -370 -376 -428 -438 -454 0
-19 -31 -70 -82 -86 -123 -135 -144 -154 -205 -229 -236 -285 -303 -317 -356 -370 -388 -437 -444 0
-19 -31 -70 -82 -86 -123 -135 -144 -154 -205 -221 -244 -283 -297 -305 -368 -376 -390 -429 -452 0
-19 -31 -70 -82 -86 -123 -135 -144 -154 -205 -221 -229 -234 -283 -317 -356 -390 -439 -444 -452 0
-19 -31 -70 -82 -86 -123 -135 -144 -154 -205 -219 -236 -244 -297 -303 -370 -376 -429 -437 -454 0
-19 -31 -69 -83 -86 -122 -136 -143 -155 -205 -230 -236 -244 -284 -316 -357 -389 -429 -437 -443 0
-19 -31 -69 -83 -86 -122 -136 -143 -155 -205 -230 -235 -285 -295 -316 -357 -378 -388 -438 -443 0
-19 -31 -69 -83 -86 -122 -136 -143 -155 -205 -230 -235 -284 -305 -315 -358 -368 -389 -438 -443 0
-19 -31 -69 -83 -86 -122 -136 -143 -155 -205 -229 -236 -285 -304 -316 -357 -369 -388 -437 -444 0
-19 -31 -69 -83 -86 -122 -136 -143 -155 -205 -229 -236 -284 -296 -315 -358 -377 -389 -437 -444 0
-19 -31 -69 -83 -86 -122 -136 -143 -155 -205 -229 -235 -245 -285 -315 -358 -388 -428 -438 -444 0
-19 -31 -69 -83 -86 -122 -136 -143 -155 -205 -221 -244 -295 -304 -316 -357 -369 -378 -429 -452 0
-19 -31 -69 -83 -86 -122 -136 -143 -155 -205 -221 -244 -284 -296 -305 -368 -377 -389 -429 -452 0
-19 -31 -69 -83 -86 -122 -136 -143 -155 -205 -221 -235 -245 -295 -305 -368 -378 -428 -438 -452 0
-19 -31 -69 -83 -86 -122 -136 -143 -155 -205 -221 -229 -245 -296 -304 -369 -377 -428 -444 -452 0
-19 -31 -69 -83 -86 -122 -136 -143 -155 -205 -221 -229 -235 -284 -316 -357 -389 -438 -444 -452 0
-19 -31 -69 -83 -86 -122 -136 -143 -155 -205 -220 -245 -296 -305 -315 -358 -368 -377 -428 -453 0
-19 -31 -69 -83 -86 -122 -136 -143 -155 -205 -220 -245 -285 -295 -304 -369 -378 -388 -428 -453 0
-19 -31 -69 -83 -86 -122 -136 -143 -155 -205 -220 -236 -244 -296 -304 -369 -377 -429 -437 -453 0
-19 -31 -69 -83 -86 -122 -136 -143 -155 -205 -220 -230 -244 -295 -305 -368 -378 -429 -443 -453 0
-19 -31 -69 -83 -86 -122 -136 -143 -155 -205 -220 -230 -236 -285 -315 -358 -388 -437 -443 -453 0
-19 -30 -68 -78 -87 -127 -137 -145 -153 -205 -230 -235 -286 -300 -319 -354 -373 -387 -438 -443 0
-19 -30 -68 -78 -87 -127 -137 -145 -153 -205 -220 -245 -299 -306 -320 -353 -367 -374 -428 -453 0
-19 -30 -68 -78 -87 -127 -137 -145 -153 -205 -220 -230 -234 -286 -320 -353 -387 -439 -443 -453 0
-19 -30 -68 -78 -87 -127 -137 -145 -153 -205 -219 -235 -245 -300 -306 -367 -373 -428 -438 -454 0
-19 -30 -67 -79 -87 -126 -138 -144 -154 -205 -229 -236 -286 -300 -318 -355 -373 -387 -437 -444 0
-19 -30 -67 -79 -87 -126 -138 -144 -154 -205 -221 -244 -298 -306 -320 -353 -367 -375 -429 -452 0
-19 -30 -67 -79 -87 -126 -138 -144 -154 -205 -221 -229 -234 -286 -320 -353 -387 -439 -444 -452 0
-19 -30 -67 -79 -87 -126 -138 -144 -154 -205 -219 -236 -244 -300 -306 -367 -373 -429 -437 -454 0
-19 -30 -66 -80 -87 -125 -139 -143 -155 -205 -230 -236 -244 -287 -319 -354 -386 -429 -437 -443 0
-19 -30 -66 -80 -87 -125 -139 -143 -155 -205 -230 -235 -288 -298 -319 -354 -375 -385 -438 -443 0
-19 -30 -66 -80 -87 -125 -139 -143 -155 -205 -230 -235 -287 -308 -318 -355 -365 -386 -438 -443 0
-19 -30 -66 -80 -87 -125 -139 -143 -155 -205 -229 -236 -288 -307 -319 -354 -366 -385 -437 -444 0
-19 -30 -66 -80 -87 -125 -139 -143 -155 -205 -229 -236 -287 -299 -318 -355 -374 -386 -437 -444 0
-19 -30 -66 -80 -87 -125 -139 -143 -155 -205 -229 -235 -245 -288 -318 -355 -385 -428 -438 -444 0
-19 -30 -66 -80 -87 -125 -139 -143 -155 -205 -221 -244 -298 -307 -319 -354 -366 -375 -429 -452 0
-19 -30 -66 -80 -87 -125 -139 -143 -155 -205 -221 -244 -287 -299 -308 -365 -374 -386 -429 -452 0
-19 -30 -66 -80 -87 -125 -139 -143 -155 -205 -221 -235 -245 -298 -308 -365 -375 -428 -438 -452 0
-19 -30 -66 -80 -87 -125 -139 -143 -155 -205 -221 -229 -245 -299 -307 -366 -374 -428 -444 -452 0
-19 -30 -66 -80 -87 -125 -139 -143 -155 -205 -221 -229 -235 -287 -319 -354 -386 -438 -444 -452 0
-19 -30 -66 -80 -87 -125 -139 -143 -155 -205 -220 -245 -299 -308 -318 -355 -365 -374 -428 -453 0
-19 -30 -66 -80 -87 -125 -139 -143 -155 -205 -220 -245 -288 -298 -307 -366 -375 -385 -428 -453 0
-19 -30 -66 -80 -87 -125 -139 -143 -155 -205 -220 -236 -244 -299 -307 -366 -374 -429 -437 -453 0
-19 -30 -66 -80 -87 -125 -139 -143 -155 -205 -220 -230 -244 -298 -308 -365 -375 -429 -443 -453 0
-19 -30 -66 -80 -87 -125 -139 -143 -155 -205 -220 -230 -236 -288 -318 -355 -385 -437 -443 -453 0
-18 -49 -58 -82 -94 -106 -125 -148 -172 -186 -223 -244 -258 -268 -325 -348 -405 -415 -429 -450 0
-18 -49 -58 -82 -94 -106 -125 -148 -172 -186 -223 -242 -269 -282 -325 -348 -391 -404 -431 -450 0
-18 -49 -58 -82 -94 -106 -125 -148 -172 -186 -222 -244 -268 -283 -323 -350 -390 -405 -429 -451 0
-18 -49 -58 -82 -94 -106 -125 -148 -172 -186 -222 -242 -260 -269 -323 -350 -404 -413 -431 -451 0
-18 -48 -61 -80 -93 -107 -123 -150 -169 -187 -227 -244 -257 -267 -328 -345 -406 -416 -429 -446 0
-18 -48 -61 -80 -93 -107 -123 -150 -169 -187 -227 -238 -270 -282 -328 -345 -391 -403 -435 -446 0
-18 -48 -61 -80 -93 -107 -123 -150 -169 -187 -227 -238 -267 -309 -322 -351 -364 -406 -435 -446 0
-18 -48 -61 -80 -93 -107 -123 -150 -169 -187 -222 -244 -270 -303 -328 -345 -370 -403 -429 -451 0
-18 -48 -61 -80 -93 -107 -123 -150 -169 -187 -222 -244 -267 -287 -322 -351 -386 -406 -429 -451 0
-18 -48 -61 -80 -93 -107 -123 -150 -169 -187 -222 -238 -263 -270 -322 -351 -403 -410 -435 -451 0
-18 -48 -61 -80 -93 -107 -123 -150 -169 -187 -215 -257 -282 -303 -328 -345 -370 -391 -416 -458 0
-18 -48 -61 -80 -93 -107 -123 -150 -169 -187 -215 -257 -267 -287 -309 -364 -386 -406 -416 -458 0
-18 -48 -61 -80 -93 -107 -123 -150 -169 -187 -215 -238 -263 -282 -309 -364 -391 -410 -435 -458 0
-18 -48 -61 -80 -93 -107 -123 -150 -169 -187 -215 -222 -263 -287 -303 -370 -386 -410 -451 -458 0
-18 -48 -61 -80 -93 -107 -123 -150 -169 -187 -215 -222 -238 -267 -328 -345 -406 -435 -451 -458 0
-18 -48 -61 -80 -93 -107 -123 -150 -169 -187 -212 -263 -287 -309 -322 -351 -364 -386 -410 -461 0
-18 -48 -61 -80 -93 -107 -123 -150 -169 -187 -212 -263 -270 -282 -303 -370 -391 -403 -410 -461 0
-18 -48 -61 -80 -93 -107 -123 -150 -169 -187 -212 -244 -257 -287 -303 -370 -386 -416 -429 -461 0
-18 -48 -61 -80 -93 -107 -123 -150 -169 -187 -212 -227 -257 -282 -309 -364 -391 -416 -446 -461 0
-18 -48 -61 -80 -93 -107 -123 -150 -169 -187 -212 -227 -244 -270 -322 -351 -403 -429 -446 -461 0
-18 -46 -63 -80 -92 -108 -123 -150 -167 -189 -229 -242 -257 -267 -328 -345 -406 -416 -431 -444 0
-18 -46 -63 -80 -92 -108 -123 -150 -167 -189 -229 -237 -270 -283 -328 -345 -390 -403 -436 -444 0
-18 -46 -63 -80 -92 -108 -123 -150 -167 -189 -229 -237 -267 -307 -322 -351 -366 -406 -436 -444 0
-18 -46 -63 -80 -92 -108 -123 -150 -167 -189 -223 -242 -270 -302 -328 -345 -371 -403 -431 -450 0
-18 -46 -63 -80 -92 -108 -123 -150 -167 -189 -223 -242 -267 -289 -322 -351 -384 -406 -431 -450 0
-18 -46 -63 -80 -92 -108 -123 -150 -167 -189 -223 -237 -263 -270 -322 -351 -403 -410 -436 -450 0
-18 -46 -63 -80 -92 -108 -123 -150 -167 -189 -215 -257 -283 -302 -328 -345 -371 -390 -416 -458 0
-18 -46 -63 -80 -92 -108 -123 -150 -167 -189 -215 -257 -267 -289 -307 -366 -384 -406 -416 -458 0
-18 -46 -63 -80 -92 -108 -123 -150 -167 -189 -215 -237 -263 -283 -307 -366 -390 -410 -436 -458 0
-18 -46 -63 -80 -92 -108 -123 -150 -167 -189 -215 -223 -263 -289 -302 -371 -384 -410 -450 -458 0
-18 -46 -63 -80 -92 -108 -123 -150 -167 -189 -215 -223 -237 -267 -328 -345 -406 -436 -450 -458 0
-18 -46 -63 -80 -92 -108 -123 -150 -167 -189 -212 -263 -289 -307 -322 -351 -366 -384 -410 -461 0
-18 -46 -63 -80 -92 -108 -123 -150 -167 -189 -212 -263 -270 -283 -302 -371 -390 -403 -410 -461 0
-18 -46 -63 -80 -92 -108 -123 -150 -167 -189 -212 -242 -257 -289 -302 -371 -384 -416 -431 -461 0
-18 -46 -63 -80 -92 -108 -123 -150 -167 -189 -212 -229 -257 -283 -307 -366 -390 -416 -444 -461 0
-18 -46 -63 -80 -92 -108 -123 -150 -167 -189 -212 -229 -242 -270 -322 -351 -403 -431 -444 -461 0
-18 -43 -64 -82 -91 -109 -125 -148 -166 -192 -229 -238 -258 -268 -325 -348 -405 -415 -435 -444 0
-18 -43 -64 -82 -91 -109 -125 -148 -166 -192 -229 -237 -268 -303 -323 -350 -370 -405 -436 -444 0
-18 -43 -64 -82 -91 -109 -125 -148 -166 -192 -227 -238 -269 -302 -325 -348 -371 -404 -435 -446 0
-18 -43 -64 -82 -91 -109 -125 -148 -166 -192 -227 -237 -260 -269 -323 -350 -404 -413 -436 -446 0
-18 -38 -50 -69 -105 -114 -138 -148 -172 -186 -223 -244 -258 -278 -335 -338 -395 -415 -429 -450 0
-18 -38 -50 -69 -105 -114 -138 -148 -172 -186 -223 -242 -278 -321 -334 -339 -352 -395 -431 -450 0
-18 -38 -50 -69 -105 -114 -138 -148 -172 -186 -222 -244 -280 -320 -335 -338 -353 -393 -429 -451 0
-18 -38 -50 -69 -105 -114 -138 -148 -172 -186 -222 -242 -260 -280 -334 -339 -393 -413 -431 -451 0
-18 -37 -51 -67 -104 -117 -136 -150 -169 -187 -227 -244 -257 -275 -336 -337 -398 -416 -429 -446 0
-18 -37 -51 -67 -104 -117 -136 -150 -169 -187 -227 -238 -281 -294 -336 -337 -379 -392 -435 -446 0
-18 -37 -51 -67 -104 -117 -136 -150 -169 -187 -227 -238 -275 -321 -333 -340 -352 -398 -435 -446 0
-18 -37 -51 -67 -104 -117 -136 -150 -169 -187 -222 -244 -281 -316 -336 -337 -357 -392 -429 -451 0
-18 -37 -51 -67 -104 -117 -136 -150 -169 -187 -222 -244 -275 -300 -333 -340 -373 -398 -429 -451 0
-18 -37 -51 -67 -104 -117 -136 -150 -169 -187 -222 -238 -263 -281 -333 -340 -392 -410 -435 -451 0
-18 -37 -51 -67 -104 -117 -136 -150 -169 -187 -215 -257 -294 -316 -336 -337 -357 -379 -416 -458 0
-18 -37 -51 -67 -104 -117 -136 -150 -169 -187 -215 -257 -275 -300 -321 -352 -373 -398 -416 -458 0
-18 -37 -51 -67 -104 -117 -136 -150 -169 -187 -215 -238 -263 -294 -321 -352 -379 -410 -435 -458 0
-18 -37 -51 -67 -104 -117 -136 -150 -169 -187 -215 -222 -263 -300 -316 -357 -373 -410 -451 -458 0
-18 -37 -51 -67 -104 -117 -136 -150 -169 -187 -215 -222 -238 -275 -336 -337 -398 -435 -451 -458 0
-18 -37 -51 -67 -104 -117 -136 -150 -169 -187 -212 -263 -300 -321 -333 -340 -352 -373 -410 -461 0
-18 -37 -51 -67 -104 -117 -136 -150 -169 -187 -212 -263 -281 -294 -316 -357 -379 -392 -410 -461 0
-18 -37 -51 -67 -104 -117 -136 -150 -169 -187 -212 -244 -257 -300 -316 -357 -373 -416 -429 -461 0
-18 -37 -51 -67 -104 -117 -136 -150 -169 -187 -212 -227 -257 -294 -321 -352 -379 -416 -446 -461 0
-18 -37 -51 -67 -104 -117 -136 -150 -169 -187 -212 -227 -244 -281 -333 -340 -392 -429 -446 -461 0
-18 -36 -52 -67 -102 -119 -136 -150 -167 -189 -229 -242 -257 -275 -336 -337 -398 -416 -431 -444 0
-18 -36 -52 -67 -102 -119 -136 -150 -167 -189 -229 -237 -281 -296 -336 -337 -377 -392 -436 -444 0
-18 -36 -52 -67 -102 -119 -136 -150 -167 -189 -229 -237 -275 -320 -333 -340 -353 -398 -436 -444 0
-18 -36 -52 -67 -102 -119 -136 -150 -167 -189 -223 -242 -281 -314 -336 -337 -359 -392 -431 -450 0
-18 -36 -52 -67 -102 -119 -136 -150 -167 -189 -223 -242 -275 -301 -333 -340 -372 -398 -431 -450 0
-18 -36 -52 -67 -102 -119 -136 -150 -167 -189 -223 -237 -263 -281 -333 -340 -392 -410 -436 -450 0
-18 -36 -52 -67 -102 -119 -136 -150 -167 -189 -215 -257 -296 -314 -336 -337 -359 -377 -416 -458 0
-18 -36 -52 -67 -102 -119 -136 -150 -167 -189 -215 -257 -275 -301 -320 -353 -372 -398 -416 -458 0
-18 -36 -52 -67 -102 -119 -136 -150 -167 -189 -215 -237 -263 -296 -320 -353 -377 -410 -436 -458 0
-18 -36 -52 -67 -102 -119 -136 -150 -167 -189 -215 -223 -263 -301 -314 -359 -372 -410 -450 -458 0
-18 -36 -52 -67 -102 -119 -136 -150 -167 -189 -215 -223 -237 -275 -336 -337 -398 -436 -450 -458 0
-18 -36 -52 -67 -102 -119 -136 -150 -167 -189 -212 -263 -301 -320 -333 -340 -353 -372 -410 -461 0
-18 -36 -52 -67 -102 -119 -136 -150 -167 -189 -212 -263 -281 -296 -314 -359 -377 -392 -410 -461 0
-18 -36 -52 -67 -102 -119 -136 -150 -167 -189 -212 -242 -257 -301 -314 -359 -372 -416 -431 -461 0
-18 -36 -52 -67 -102 -119 -136 -150 -167 -189 -212 -229 -257 -296 -320 -353 -377 -416 -444 -461 0
-18 -36 -52 -67 -102 -119 -136 -150 -167 -189 -212 -229 -242 -281 -333 -340 -392 -431 -444 -461 0
-18 -35 -53 -69 -99 -120 -138 -148 -166 -192 -229 -238 -258 -278 -335 -338 -395 -415 -435 -444 0
-18 -35 -53 -69 -99 -120 -138 -148 -166 -192 -229 -237 -280 -300 -335 -338 -373 -393 -436 -444 0
-18 -35 -53 -69 -99 -120 -138 -148 -166 -192 -227 -238 -278 -301 -334 -339 -372 -395 -435 -446 0
-18 -35 -53 -69 -99 -120 -138 -148 -166 -192 -227 -237 -260 -280 -334 -339 -393 -413 -436 -446 0
-18 -34 -80 -82 -85 -123 -125 -148 -150 -206 -229 -238 -242 -282 -309 -364 -391 -431 -435 -444 0
-18 -34 -80 -82 -85 -123 -125 -148 -150 -206 -229 -237 -283 -287 -309 -364 -386 -390 -436 -444 0
-18 -34 -80 -82 -85 -123 -125 -148 -150 -206 -229 -237 -282 -303 -307 -366 -370 -391 -436 -444 0
-18 -34 -80 -82 -85 -123 -125 -148 -150 -206 -227 -238 -283 -302 -309 -364 -371 -390 -435 -446 0
-18 -34 -80 -82 -85 -123 -125 -148 -150 -206 -227 -238 -282 -289 -307 -366 -384 -391 -435 -446 0
-18 -34 -80 -82 -85 -123 -125 -148 -150 -206 -227 -237 -244 -283 -307 -366 -390 -429 -436 -446 0
-18 -34 -80 -82 -85 -123 -125 -148 -150 -206 -223 -242 -287 -302 -309 -364 -371 -386 -431 -450 0
-18 -34 -80 -82 -85 -123 -125 -148 -150 -206 -223 -242 -282 -289 -303 -370 -384 -391 -431 -450 0
-18 -34 -80 -82 -85 -123 -125 -148 -150 -206 -223 -237 -244 -287 -303 -370 -386 -429 -436 -450 0
-18 -34 -80 -82 -85 -123 -125 -148 -150 -206 -223 -227 -244 -289 -302 -371 -384 -429 -446 -450 0
-18 -34 -80 -82 -85 -123 -125 -148 -150 -206 -223 -227 -237 -282 -309 -364 -391 -436 -446 -450 0
-18 -34 -80 -82 -85 -123 -125 -148 -150 -206 -222 -244 -289 -303 -307 -366 -370 -384 -429 -451 0
-18 -34 -80 -82 -85 -123 -125 -148 -150 -206 -222 -244 -283 -287 -302 -371 -386 -390 -429 -451 0
-18 -34 -80 -82 -85 -123 -125 -148 -150 -206 -222 -238 -242 -289 -302 -371 -384 -431 -435 -451 0
-18 -34 -80 -82 -85 -123 -125 -148 -150 -206 -222 -229 -242 -287 -303 -370 -386 -431 -444 -451 0
-18 -34 -80 -82 -85 -123 -125 -148 -150 -206 -222 -229 -238 -283 -307 -366 -390 -435 -444 -451 0
-18 -34 -79 -83 -85 -122 -126 -147 -151 -206 -229 -237 -282 -304 -306 -367 -369 -391 -436 -444 0
-18 -34 -79 -83 -85 -122 -126 -147 -151 -206 -224 -237 -244 -286 -304 -369 -387 -429 -436 -449 0
-18 -34 -79 -83 -85 -122 -126 -147 -151 -206 -222 -244 -284 -286 -302 -371 -387 -389 -429 -451 0
-18 -34 -79 -83 -85 -122 -126 -147 -151 -206 -222 -229 -239 -284 -306 -367 -389 -434 -444 -451 0
-18 -34 -77 -84 -85 -121 -128 -146 -153 -206 -227 -238 -283 -304 -306 -367 -369 -390 -435 -446 0
-18 -34 -77 -84 -85 -121 -128 -146 -153 -206 -224 -238 -242 -286 -304 -369 -387 -431 -435 -449 0
-18 -34 -77 -84 -85 -121 -128 -146 -153 -206 -223 -242 -284 -286 -303 -370 -387 -389 -431 -450 0
-18 -34 -77 -84 -85 -121 -128 -146 -153 -206 -223 -227 -239 -284 -306 -367 -389 -434 -446 -450 0
-18 -29 -67 -69 -90 -136 -138 -148 -150 -206 -229 -238 -242 -294 -321 -352 -379 -431 -435 -444 0
-18 -29 -67 -69 -90 -136 -138 -148 -150 -206 -229 -237 -296 -300 -321 -352 -373 -377 -436 -444 0
-18 -29 -67 -69 -90 -136 -138 -148 -150 -206 -229 -237 -294 -316 -320 -353 -357 -379 -436 -444 0
-18 -29 -67 -69 -90 -136 -138 -148 -150 -206 -227 -238 -296 -314 -321 -352 -359 -377 -435 -446 0
-18 -29 -67 -69 -90 -136 -138 -148 -150 -206 -227 -238 -294 -301 -320 -353 -372 -379 -435 -446 0
-18 -29 -67 -69 -90 -136 -138 -148 -150 -206 -227 -237 -244 -296 -320 -353 -377 -429 -436 -446 0
-18 -29 -67 -69 -90 -136 -138 -148 -150 -206 -223 -242 -300 -314 -321 -352 -359 -373 -431 -450 0
-18 -29 -67 -69 -90 -136 -138 -148 -150 -206 -223 -242 -294 -301 -316 -357 -372 -379 -431 -450 0
-18 -29 -67 -69 -90 -136 -138 -148 -150 -206 -223 -237 -244 -300 -316 -357 -373 -429 -436 -450 0
-18 -29 -67 -69 -90 -136 -138 -148 -150 -206 -223 -227 -244 -301 -314 -359 -372 -429 -446 -450 0
-18 -29 -67 -69 -90 -136 -138 -148 -150 -206 -223 -227 -237 -294 -321 -352 -379 -436 -446 -450 0
-18 -29 -67 -69 -90 -136 -138 -148 -150 -206 -222 -244 -301 -316 -320 -353 -357 -372 -429 -451 0
-18 -29 -67 -69 -90 -136 -138 -148 -150 -206 -222 -244 -296 -300 -314 -359 -373 -377 -429 -451 0
-18 -29 -67 -69 -90 -136 -138 -148 -150 -206 -222 -238 -242 -301 -314 -359 -372 -431 -435 -451 0
-18 -29 -67 -69 -90 -136 -138 -148 -150 -206 -222 -229 -242 -300 -316 -357 -373 -431 -444 -451 0
-18 -29 -67 -69 -90 -136 -138 -148 -150 -206 -222 -229 -238 -296 -320 -353 -377 -435 -444 -451 0
-18 -29 -66 -70 -90 -135 -139 -147 -151 -206 -229 -237 -297 -299 -321 -352 -374 -376 -436 -444 0
-18 -29 -66 -70 -90 -135 -139 -147 -151 -206 -224 -237 -244 -299 -317 -356 -374 -429 -436 -449 0
-18 -29 -66 -70 -90 -135 -139 -147 -151 -206 -222 -244 -301 -317 -319 -354 -356 -372 -429 -451 0
-18 -29 -66 -70 -90 -135 -139 -147 -151 -206 -222 -229 -239 -297 -319 -354 -376 -434 -444 -451 0
-18 -29 -65 -72 -90 -133 -140 -146 -153 -206 -227 -238 -297 -299 -320 -353 -374 -376 -435 -446 0
-18 -29 -65 -72 -90 -133 -140 -146 -153 -206 -224 -238 -242 -299 -317 -356 -374 -431 -435 -449 0
-18 -29 -65 -72 -90 -133 -140 -146 -153 -206 -223 -242 -300 -317 -319 -354 -356 -373 -431 -450 0
-18 -29 -65 -72 -90 -133 -140 -146 -153 -206 -223 -227 -239 -297 -319 -354 -376 -434 -446 -450 0
-17 -49 -57 -81 -95 -106 -125 -149 -173 -186 -223 -245 -259 -268 -326 -347 -405 -414 -428 -450 0
-17 -49 -57 -81 -95 -106 -125 -149 -173 -186 -223 -243 -269 -282 -326 -347 -391 -404 -430 -450 0
-17 -49 -57 -81 -95 -106 -125 -149 -173 -186 -222 -245 -268 -283 -324 -349 -390 -405 -428 -451 0
-17 -49 -57 -81 -95 -106 -125 -149 -173 -186 -222 -243 -261 -269 -324 -349 -404 -412 -430 -451 0
-17 -47 -60 -80 -93 -107 -124 -150 -170 -188 -228 -245 -257 -267 -329 -344 -406 -416 -428 -445 0
-17 -47 -60 -80 -93 -107 -124 -150 -170 -188 -228 -238 -271 -282 -329 -344 -391 -402 -435 -445 0
-17 -47 -60 -80 -93 -107 -124 -150 -170 -188 -228 -238 -267 -310 -322 -351 -363 -406 -435 -445 0
-17 -47 -60 -80 -93 -107 -124 -150 -170 -188 -222 -245 -271 -303 -329 -344 -370 -402 -428 -451 0
-17 -47 -60 -80 -93 -107 -124 -150 -170 -188 -222 -245 -267 -288 -322 -351 -385 -406 -428 -451 0
-17 -47 -60 -80 -93 -107 -124 -150 -170 -188 -222 -238 -264 -271 -322 -351 -402 -409 -435 -451 0
-17 -47 -60 -80 -93 -107 -124 -150 -170 -188 -216 -257 -282 -303 -329 -344 -370 -391 -416 -457 0
-17 -47 -60 -80 -93 -107 -124 -150 -170 -188 -216 -257 -267 -288 -310 -363 -385 -406 -416 -457 0
-17 -47 -60 -80 -93 -107 -124 -150 -170 -188 -216 -238 -264 -282 -310 -363 -391 -409 -435 -457 0
-17 -47 -60 -80 -93 -107 -124 -150 -170 -188 -216 -222 -264 -288 -303 -370 -385 -409 -451 -457 0
-17 -47 -60 -80 -93 -107 -124 -150 -170 -188 -216 -222 -238 -267 -329 -344 -406 -435 -451 -457 0
-17 -47 -60 -80 -93 -107 -124 -150 -170 -188 -212 -264 -288 -310 -322 -351 -363 -385 -409 -461 0
-17 -47 -60 -80 -93 -107 -124 -150 -170 -188 -212 -264 -271 -282 -303 -370 -391 -402 -409 -461 0
-17 -47 -60 -80 -93 -107 -124 -150 -170 -188 -212 -245 -257 -288 -303 -370 -385 -416 -428 -461 0
-17 -47 -60 -80 -93 -107 -124 -150 -170 -188 -212 -228 -257 -282 -310 -363 -391 -416 -445 -461 0
-17 -47 -60 -80 -93 -107 -124 -150 -170 -188 -212 -228 -245 -271 -322 -351 -402 -428 -445 -461 0
-17 -45 -62 -80 -92 -108 -124 -150 -168 -190 -230 -243 -257 -267 -329 -344 -406 -416 -430 -443 0
-17 -45 -62 -80 -92 -108 -124 -150 -168 -190 -230 -237 -271 -283 -329 -344 -390 -402 -436 -443 0
-17 -45 -62 -80 -92 -108 -124 -150 -168 -190 -230 -237 -267 -308 -322 -351 -365 -406 -436 -443 0
-17 -45 -62 -80 -92 -108 -124 -150 -168 -190 -223 -243 -271 -302 -329 -344 -371 -402 -430 -450 0
-17 -45 -62 -80 -92 -108 -124 -150 -168 -190 -223 -243 -267 -290 -322 -351 -383 -406 -430 -450 0
-17 -45 -62 -80 -92 -108 -124 -150 -168 -190 -223 -237 -264 -271 -322 -351 -402 -409 -436 -450 0
-17 -45 -62 -80 -92 -108 -124 -150 -168 -190 -216 -257 -283 -302 -329 -344 -371 -390 -416 -457 0
-17 -45 -62 -80 -92 -108 -124 -150 -168 -190 -216 -257 -267 -290 -308 -365 -383 -406 -416 -457 0
-17 -45 -62 -80 -92 -108 -124 -150 -168 -190 -216 -237 -264 -283 -308 -365 -390 -409 -436 -457 0
-17 -45 -62 -80 -92 -108 -124 -150 -168 -190 -216 -223 -264 -290 -302 -371 -383 -409 -450 -457 0
-17 -45 -62 -80 -92 -108 -124 -150 -168 -190 -216 -223 -237 -267 -329 -344 -406 -436 -450 -457 0
-17 -45 -62 -80 -92 -108 -124 -150 -168 -190 -212 -264 -290 -308 -322 -351 -365 -383 -409 -461 0
-17 -45 -62 -80 -92 -108 -124 -150 -168 -190 -212 -264 -271 -283 -302 -371 -390 -402 -409 -461 0
-17 -45 -62 -80 -92 -108 -124 -150 -168 -190 -212 -243 -257 -290 -302 -371 -383 -416 -430 -461 0
-17 -45 -62 -80 -92 -108 -124 -150 -168 -190 -212 -230 -257 -283 -308 -365 -390 -416 -443 -461 0
-17 -45 -62 -80 -92 -108 -124 -150 -168 -190 -212 -230 -243 -271 -322 -351 -402 -430 -443 -461 0
-17 -42 -64 -81 -91 -110 -125 -149 -166 -193 -230 -238 -259 -268 -326 -347 -405 -414 -435 -443 0
-17 -42 -64 -81 -91 -110 -125 -149 -166 -193 -230 -237 -268 -303 -324 -349 -370 -405 -436 -443 0
-17 -42 -64 -81 -91 -110 -125 -149 -166 -193 -228 -238 -269 -302 -326 -347 -371 -404 -435 -445 0
-17 -42 -64 -81 -91 -110 -125 -149 -166 -193 -228 -237 -261 -269 -324 -349 -404 -412 -436 -445 0
-17 -39 -50 -69 -105 -113 -137 -149 -173 -186 -223 -245 -259 -277 -335 -338 -396 -414 -428 -450 0
-17 -39 -50 -69 -105 -113 -137 -149 -173 -186 -223 -243 -277 -321 -334 -339 -352 -396 -430 -450 0
-17 -39 -50 -69 -105 -113 -137 -149 -173 -186 -222 -245 -279 -320 -335 -338 -353 -394 -428 -451 0
-17 -39 -50 -69 -105 -113 -137 -149 -173 -186 -222 -243 -261 -279 -334 -339 -394 -412 -430 -451 0
-17 -37 -51 -68 -103 -116 -136 -150 -170 -188 -228 -245 -257 -274 -336 -337 -399 -416 -428 -445 0
-17 -37 -51 -68 -103 -116 -136 -150 -170 -188 -228 -238 -281 -293 -336 -337 -380 -392 -435 -445 0
-17 -37 -51 -68 -103 -116 -136 -150 -170 -188 -228 -238 -274 -321 -332 -341 -352 -399 -435 -445 0
-17 -37 -51 -68 -103 -116 -136 -150 -170 -188 -222 -245 -281 -315 -336 -337 -358 -392 -428 -451 0
-17 -37 -51 -68 -103 -116 -136 -150 -170 -188 -222 -245 -274 -300 -332 -341 -373 -399 -428 -451 0
-17 -37 -51 -68 -103 -116 -136 -150 -170 -188 -222 -238 -264 -281 -332 -341 -392 -409 -435 -451 0
-17 -37 -51 -68 -103 -116 -136 -150 -170 -188 -216 -257 -293 -315 -336 -337 -358 -380 -416 -457 0
-17 -37 -51 -68 -103 -116 -136 -150 -170 -188 -216 -257 -274 -300 -321 -352 -373 -399 -416 -457 0
-17 -37 -51 -68 -103 -116 -136 -150 -170 -188 -216 -238 -264 -293 -321 -352 -380 -409 -435 -457 0
-17 -37 -51 -68 -103 -116 -136 -150 -170 -188 -216 -222 -264 -300 -315 -358 -373 -409 -451 -457 0
-17 -37 -51 -68 -103 -116 -136 -150 -170 -188 -216 -222 -238 -274 -336 -337 -399 -435 -451 -457 0
-17 -37 -51 -68 -103 -116 -136 -150 -170 -188 -212 -264 -300 -321 -332 -341 -352 -373 -409 -461 0
-17 -37 -51 -68 -103 -116 -136 -150 -170 -188 -212 -264 -281 -293 -315 -358 -380 -392 -409 -461 0
-17 -37 -51 -68 -103 -116 -136 -150 -170 -188 -212 -245 -257 -300 -315 -358 -373 -416 -428 -461 0
-17 -37 -51 -68 -103 -116 -136 -150 -170 -188 -212 -228 -257 -293 -321 -352 -380 -416 -445 -461 0
-17 -37 -51 -68 -103 -116 -136 -150 -170 -188 -212 -228 -245 -281 -332 -341 -392 -428 -445 -461 0
-17 -36 -52 -68 -101 -118 -136 -150 -168 -190 -230 -243 -257 -274 -336 -337 -399 -416 -430 -443 0
-17 -36 -52 -68 -101 -118 -136 -150 -168 -190 -230 -237 -281 -295 -336 -337 -378 -392 -436 -443 0
-17 -36 -52 -68 -101 -118 -136 -150 -168 -190 -230 -237 -274 -320 -332 -341 -353 -399 -436 -443 0
-17 -36 -52 -68 -101 -118 -136 -150 -168 -190 -223 -243 -281 -313 -336 -337 -360 -392 -430 -450 0
-17 -36 -52 -68 -101 -118 -136 -150 -168 -190 -223 -243 -274 -301 -332 -341 -372 -399 -430 -450 0
-17 -36 -52 -68 -101 -118 -136 -150 -168 -190 -223 -237 -264 -281 -332 -341 -392 -409 -436 -450 0
-17 -36 -52 -68 -101 -118 -136 -150 -168 -190 -216 -257 -295 -313 -336 -337 -360 -378 -416 -457 0
-17 -36 -52 -68 -101 -118 -136 -150 -168 -190 -216 -257 -274 -301 -320 -353 -372 -399 -416 -457 0
-17 -36 -52 -68 -101 -118 -136 -150 -168 -190 -216 -237 -264 -295 -320 -353 -378 -409 -436 -457 0
-17 -36 -52 -68 -101 -118 -136 -150 -168 -190 -216 -223 -264 -301 -313 -360 -372 -409 -450 -457 0
-17 -36 -52 -68 -101 -118 -136 -150 -168 -190 -216 -223 -237 -274 -336 -337 -399 -436 -450 -457 0
-17 -36 -52 -68 -101 -118 -136 -150 -168 -190 -212 -264 -301 -320 -332 -341 -353 -372 -409 -461 0
-17 -36 -52 -68 -101 -118 -136 -150 -168 -190 -212 -264 -281 -295 -313 -360 -378 -392 -409 -461 0
-17 -36 -52 -68 -101 -118 -136 -150 -168 -190 -212 -243 -257 -301 -313 -360 -372 -416 -430 -461 0
-17 -36 -52 -68 -101 -118 -136 -150 -168 -190 -212 -230 -257 -295 -320 -353 -378 -416 -443 -461 0
-17 -36 -52 -68 -101 -118 -136 -150 -168 -190 -212 -230 -243 -281 -332 -341 -392 -430 -443 -461 0
-17 -35 -54 -69 -98 -120 -137 -149 -166 -193 -230 -238 -259 -277 -335 -338 -396 -414 -435 -443 0
-17 -35 -54 -69 -98 -120 -137 -149 -166 -193 -230 -237 -279 -300 -335 -338 -373 -394 -436 -443 0
-17 -35 -54 -69 -98 -120 -137 -149 -166 -193 -228 -238 -277 -301 -334 -339 -372 -396 -435 -445 0
-17 -35 -54 -69 -98 -120 -137 -149 -166 -193 -228 -237 -261 -279 -334 -339 -394 -412 -436 -445 0
-17 -33 -80 -81 -85 -124 -125 -149 -150 -207 -230 -238 -243 -282 -310 -363 -391 -430 -435 -443 0
-17 -33 -80 -81 -85 -124 -125 -149 -150 -207 -230 -237 -283 -288 -310 -363 -385 -390 -436 -443 0
-17 -33 -80 -81 -85 -124 -125 -149 -150 -207 -230 -237 -282 -303 -308 -365 -370 -391 -436 -443 0
-17 -33 -80 -81 -85 -124 -125 -149 -150 -207 -228 -238 -283 -302 -310 -363 -371 -390 -435 -445 0
-17 -33 -80 -81 -85 -124 -125 -149 -150 -207 -228 -238 -282 -290 -308 -365 -383 -391 -435 -445 0
-17 -33 -80 -81 -85 -124 -125 -149 -150 -207 -228 -237 -245 -283 -308 -365 -390 -428 -436 -445 0
-17 -33 -80 -81 -85 -124 -125 -149 -150 -207 -223 -243 -288 -302 -310 -363 -371 -385 -430 -450 0
-17 -33 -80 -81 -85 -124 -125 -149 -150 -207 -223 -243 -282 -290 -303 -370 -383 -391 -430 -450 0
-17 -33 -80 -81 -85 -124 -125 -149 -150 -207 -223 -237 -245 -288 -303 -370 -385 -428 -436 -450 0
-17 -33 -80 -81 -85 -124 -125 -149 -150 -207 -223 -228 -245 -290 -302 -371 -383 -428 -445 -450 0
-17 -33 -80 -81 -85 -124 -125 -149 -150 -207 -223 -228 -237 -282 -310 -363 -391 -436 -445 -450 0
-17 -33 -80 -81 -85 -124 -125 -149 -150 -207 -222 -245 -290 -303 -308 -365 -370 -383 -428 -451 0
-17 -33 -80 -81 -85 -124 -125 -149 -150 -207 -222 -245 -283 -288 -302 -371 -385 -390 -428 -451 0
-17 -33 -80 -81 -85 -124 -125 -149 -150 -207 -222 -238 -243 -290 -302 -371 -383 -430 -435 -451 0
-17 -33 -80 -81 -85 -124 -125 -149 -150 -207 -222 -230 -243 -288 -303 -370 -385 -430 -443 -451 0
-17 -33 -80 -81 -85 -124 -125 -149 -150 -207 -222 -230 -238 -283 -308 -365 -390 -435 -443 -451 0
-17 -33 -78 -83 -85 -122 -127 -147 -152 -207 -230 -237 -282 -305 -306 -367 -368 -391 -436 -443 0
-17 -33 -78 -83 -85 -122 -127 -147 -152 -207 -225 -237 -245 -286 -305 -368 -387 -428 -436 -448 0
-17 -33 -78 -83 -85 -122 -127 -147 -152 -207 -222 -245 -285 -286 -302 -371 -387 -388 -428 -451 0
-17 -33 -78 -83 -85 -122 -127 -147 -152 -207 -222 -230 -240 -285 -306 -367 -388 -433 -443 -451 0
-17 -33 -76 -84 -85 -121 -129 -146 -154 -207 -228 -238 -283 -305 -306 -367 -368 -390 -435 -445 0
-17 -33 -76 -84 -85 -121 -129 -146 -154 -207 -225 -238 -243 -286 -305 -368 -387 -430 -435 -448 0
-17 -33 -76 -84 -85 -121 -129 -146 -154 -207 -223 -243 -285 -286 -303 -370 -387 -388 -430 -450 0
-17 -33 -76 -84 -85 -121 -129 -146 -154 -207 -223 -228 -240 -285 -306 -367 -388 -433 -445 -450 0
-17 -29 -68 -69 -89 -136 -137 -149 -150 -207 -230 -238 -243 -293 -321 -352 -380 -430 -435 -443 0
-17 -29 -68 -69 -89 -136 -137 -149 -150 -207 -230 -237 -295 -300 -321 -352 -373 -378 -436 -443 0
-17 -29 -68 -69 -89 -136 -137 -149 -150 -207 -230 -237 -293 -315 -320 -353 -358 -380 -436 -443 0
-17 -29 -68 -69 -89 -136 -137 -149 -150 -207 -228 -238 -295 -313 -321 -352 -360 -378 -435 -445 0
-17 -29 -68 -69 -89 -136 -137 -149 -150 -207 -228 -238 -293 -301 -320 -353 -372 -380 -435 -445 0
-17 -29 -68 -69 -89 -136 -137 -149 -150 -207 -228 -237 -245 -295 -320 -353 -378 -428 -436 -445 0
-17 -29 -68 -69 -89 -136 -137 -149 -150 -207 -223 -243 -300 -313 -321 -352 -360 -373 -430 -450 0
-17 -29 -68 -69 -89 -136 -137 -149 -150 -207 -223 -243 -293 -301 -315 -358 -372 -380 -430 -450 0
-17 -29 -68 -69 -89 -136 -137 -149 -150 -207 -223 -237 -245 -300 -315 -358 -373 -428 -436 -450 0
-17 -29 -68 -69 -89 -136 -137 -149 -150 -207 -223 -228 -245 -301 -313 -360 -372 -428 -445 -450 0
-17 -29 -68 -69 -89 -136 -137 -149 -150 -207 -223 -228 -237 -293 -321 -352 -380 -436 -445 -450 0
-17 -29 -68 -69 -89 -136 -137 -149 -150 -207 -222 -245 -301 -315 -320 -353 -358 -372 -428 -451 0
-17 -29 -68 -69 -89 -136 -137 -149 -150 -207 -222 -245 -295 -300 -313 -360 -373 -378 -428 -451 0
-17 -29 -68 -69 -89 -136 -137 -149 -150 -207 -222 -238 -243 -301 -313 -360 -372 -430 -435 -451 0
-17 -29 -68 -69 -89 -136 -137 -149 -150 -207 -222 -230 -243 -300 -315 -358 -373 -430 -443 -451 0
-17 -29 -68 -69 -89 -136 -137 -149 -150 -207 -222 -230 -238 -295 -320 -353 -378 -435 -443 -451 0
-17 -29 -66 -71 -89 -134 -139 -147 -152 -207 -230 -237 -297 -298 -321 -352 -375 -376 -436 -443 0
-17 -29 -66 -71 -89 -134 -139 -147 -152 -207 -225 -237 -245 -298 -317 -356 -375 -428 -436 -448 0
-17 -29 -66 -71 -89 -134 -139 -147 -152 -207 -222 -245 -301 -317 -318 -355 -356 -372 -428 -451 0
-17 -29 -66 -71 -89 -134 -139 -147 -152 -207 -222 -230 -240 -297 -318 -355 -376 -433 -443 -451 0
-17 -29 -65 -73 -89 -132 -140 -146 -154 -207 -228 -238 -297 -298 -320 -353 -375 -376 -435 -445 0
-17 -29 -65 -73 -89 -132 -140 -146 -154 -207 -225 -238 -243 -298 -317 -356 -375 -430 -435 -448 0
-17 -29 -65 -73 -89 -132 -140 -146 -154 -207 -223 -243 -300 -317 -318 -355 -356 -373 -430 -450 0
-17 -29 -65 -73 -89 -132 -140 -146 -154 -207 -223 -228 -240 -297 -318 -355 -376 -433 -445 -450 0
-16 -48 -62 -75 -95 -109 -121 -155 -168 -187 -227 -243 -262 -267 -330 -343 -406 -411 -430 -446 0
-16 -48 -62 -75 -95 -109 -121 -155 -168 -187 -227 -240 -268 -284 -330 -343 -389 -405 -433 -446 0
-16 -48 -62 -75 -95 -109 -121 -155 -168 -187 -227 -240 -267 -308 -327 -346 -365 -406 -433 -446 0
-16 -48 -62 -75 -95 -109 -121 -155 -168 -187 -224 -243 -268 -305 -330 -343 -368 -405 -430 -449 0
-16 -48 -62 -75 -95 -109 -121 -155 -168 -187 -224 -243 -267 -287 -327 -346 -386 -406 -430 -449 0
-16 -48 -62 -75 -95 -109 -121 -155 -168 -187 -224 -240 -265 -268 -327 -346 -405 -408 -433 -449 0
-16 -48 -62 -75 -95 -109 -121 -155 -168 -187 -213 -262 -284 -305 -330 -343 -368 -389 -411 -460 0
-16 -48 -62 -75 -95 -109 -121 -155 -168 -187 -213 -262 -267 -287 -308 -365 -386 -406 -411 -460 0
-16 -48 -62 -75 -95 -109 -121 -155 -168 -187 -213 -240 -265 -284 -308 -365 -389 -408 -433 -460 0
-16 -48 -62 -75 -95 -109 -121 -155 -168 -187 -213 -224 -265 -287 -305 -368 -386 -408 -449 -460 0
-16 -48 -62 -75 -95 -109 -121 -155 -168 -187 -213 -224 -240 -267 -330 -343 -406 -433 -449 -460 0
-16 -48 -62 -75 -95 -109 -121 -155 -168 -187 -212 -265 -287 -308 -327 -346 -365 -386 -408 -461 0
-16 -48 -62 -75 -95 -109 -121 -155 -168 -187 -212 -265 -268 -284 -305 -368 -389 -405 -408 -461 0
-16 -48 -62 -75 -95 -109 -121 -155 -168 -187 -212 -243 -262 -287 -305 -368 -386 -411 -430 -461 0
-16 -48 -62 -75 -95 -109 -121 -155 -168 -187 -212 -227 -262 -284 -308 -365 -389 -411 -446 -461 0
-16 -48 -62 -75 -95 -109 -121 -155 -168 -187 -212 -227 -243 -268 -327 -346 -405 -430 -446 -461 0
-16 -47 -63 -75 -94 -110 -121 -155 -167 -188 -228 -242 -262 -267 -330 -343 -406 -411 -431 -445 0
-16 -47 -63 -75 -94 -110 -121 -155 -167 -188 -228 -239 -268 -285 -330 -343 -388 -405 -434 -445 0
-16 -47 -63 -75 -94 -110 -121 -155 -167 -188 -228 -239 -267 -307 -327 -346 -366 -406 -434 -445 0
-16 -47 -63 -75 -94 -110 -121 -155 -167 -188 -225 -242 -268 -304 -330 -343 -369 -405 -431 -448 0
-16 -47 -63 -75 -94 -110 -121 -155 -167 -188 -225 -242 -267 -288 -327 -346 -385 -406 -431 -448 0
-16 -47 -63 -75 -94 -110 -121 -155 -167 -188 -225 -239 -265 -268 -327 -346 -405 -408 -434 -448 0
-16 -47 -63 -75 -94 -110 -121 -155 -167 -188 -213 -262 -285 -304 -330 -343 -369 -388 -411 -460 0
-16 -47 -63 -75 -94 -110 -121 -155 -167 -188 -213 -262 -267 -288 -307 -366 -385 -406 -411 -460 0
-16 -47 -63 -75 -94 -110 -121 -155 -167 -188 -213 -239 -265 -285 -307 -366 -388 -408 -434 -460 0
-16 -47 -63 -75 -94 -110 -121 -155 -167 -188 -213 -225 -265 -288 -304 -369 -385 -408 -448 -460 0
-16 -47 -63 -75 -94 -110 -121 -155 -167 -188 -213 -225 -239 -267 -330 -343 -406 -434 -448 -460 0
-16 -47 -63 -75 -94 -110 -121 -155 -167 -188 -212 -265 -288 -307 -327 -346 -366 -385 -408 -461 0
-16 -47 -63 -75 -94 -110 -121 -155 -167 -188 -212 -265 -268 -285 -304 -369 -388 -405 -408 -461 0
-16 -47 -63 -75 -94 -110 -121 -155 -167 -188 -212 -242 -262 -288 -304 -369 -385 -411 -431 -461 0
-16 -47 -63 -75 -94 -110 -121 -155 -167 -188 -212 -228 -262 -285 -307 -366 -388 -411 -445 -461 0
-16 -47 -63 -75 -94 -110 -121 -155 -167 -188 -212 -228 -242 -268 -327 -346 -405 -431 -445 -461 0
-16 -44 -56 -84 -92 -106 -130 -146 -174 -191 -225 -243 -258 -270 -324 -349 -403 -415 -430 -448 0
-16 -44 -56 -84 -92 -106 -130 -146 -174 -191 -225 -242 -271 -284 -324 -349 -389 -402 -431 -448 0
-16 -44 -56 -84 -92 -106 -130 -146 -174 -191 -224 -243 -270 -285 -323 -350 -388 -403 -430 -449 0
-16 -44 -56 -84 -92 -106 -130 -146 -174 -191 -224 -242 -259 -271 -323 -350 -402 -414 -431 -449 0
-16 -41 -59 -84 -91 -107 -130 -146 -171 -194 -228 -240 -258 -270 -324 -349 -403 -415 -433 -445 0
-16 -41 -59 -84 -91 -107 -130 -146 -171 -194 -228 -239 -270 -305 -323 -350 -368 -403 -434 -445 0
-16 -41 -59 -84 -91 -107 -130 -146 -171 -194 -227 -240 -271 -304 -324 -349 -369 -402 -433 -446 0
-16 -41 -59 -84 -91 -107 -130 -146 -171 -194 -227 -239 -259 -271 -323 -350 -402 -414 -434 -446 0
-16 -39 -53 -65 -104 -118 -131 -155 -168 -187 -227 -243 -262 -273 -336 -337 -400 -411 -430 -446 0
-16 -39 -53 -65 -104 -118 -131 -155 -168 -187 -227 -240 -276 -295 -336 -337 -378 -397 -433 -446 0
-16 -39 -53 -65 -104 -118 -131 -155 -168 -187 -227 -240 -273 -319 -335 -338 -354 -400 -433 -446 0
-16 -39 -53 -65 -104 -118 -131 -155 -168 -187 -224 -243 -276 -316 -336 -337 -357 -397 -430 -449 0
-16 -39 -53 -65 -104 -118 -131 -155 -168 -187 -224 -243 -273 -298 -335 -338 -375 -400 -430 -449 0
-16 -39 -53 -65 -104 -118 -131 -155 -168 -187 -224 -240 -265 -276 -335 -338 -397 -408 -433 -449 0
-16 -39 -53 -65 -104 -118 -131 -155 -168 -187 -213 -262 -295 -316 -336 -337 -357 -378 -411 -460 0
-16 -39 -53 -65 -104 -118 -131 -155 -168 -187 -213 -262 -273 -298 -319 -354 -375 -400 -411 -460 0
-16 -39 -53 -65 -104 -118 -131 -155 -168 -187 -213 -240 -265 -295 -319 -354 -378 -408 -433 -460 0
-16 -39 -53 -65 -104 -118 -131 -155 -168 -187 -213 -224 -265 -298 -316 -357 -375 -408 -449 -460 0
-16 -39 -53 -65 -104 -118 -131 -155 -168 -187 -213 -224 -240 -273 -336 -337 -400 -433 -449 -460 0
-16 -39 -53 -65 -104 -118 -131 -155 -168 -187 -212 -265 -298 -319 -335 -338 -354 -375 -408 -461 0
-16 -39 -53 -65 -104 -118 -131 -155 -168 -187 -212 -265 -276 -295 -316 -357 -378 -397 -408 -461 0
-16 -39 -53 -65 -104 -118 -131 -155 -168 -187 -212 -243 -262 -298 -316 -357 -375 -411 -430 -461 0
-16 -39 -53 -65 -104 -118 -131 -155 -168 -187 -212 -227 -262 -295 -319 -354 -378 -411 -446 -461 0
-16 -39 -53 -65 -104 -118 -131 -155 -168 -187 -212 -227 -243 -276 -335 -338 -397 -430 -446 -461 0
-16 -38 -54 -65 -103 -119 -131 -155 -167 -188 -228 -242 -262 -273 -336 -337 -400 -411 -431 -445 0
-16 -38 -54 -65 -103 -119 -131 -155 -167 -188 -228 -239 -276 -296 -336 -337 -377 -397 -434 -445 0
-16 -38 -54 -65 -103 -119 -131 -155 -167 -188 -228 -239 -273 -318 -335 -338 -355 -400 -434 -445 0
-16 -38 -54 -65 -103 -119 -131 -155 -167 -188 -225 -242 -276 -315 -336 -337 -358 -397 -431 -448 0
-16 -38 -54 -65 -103 -119 -131 -155 -167 -188 -225 -242 -273 -299 -335 -338 -374 -400 -431 -448 0
-16 -38 -54 -65 -103 -119 -131 -155 -167 -188 -225 -239 -265 -276 -335 -338 -397 -408 -434 -448 0
-16 -38 -54 -65 -103 -119 -131 -155 -167 -188 -213 -262 -296 -315 -336 -337 -358 -377 -411 -460 0
-16 -38 -54 -65 -103 -119 -131 -155 -167 -188 -213 -262 -273 -299 -318 -355 -374 -400 -411 -460 0
-16 -38 -54 -65 -103 -119 -131 -155 -167 -188 -213 -239 -265 -296 -318 -355 -377 -408 -434 -460 0
-16 -38 -54 -65 -103 -119 -131 -155 -167 -188 -213 -225 -265 -299 -315 -358 -374 -408 -448 -460 0
-16 -38 -54 -65 -103 -119 -131 -155 -167 -188 -213 -225 -239 -273 -336 -337 -400 -434 -448 -460 0
-16 -38 -54 -65 -103 -119 -131 -155 -167 -188 -212 -265 -299 -318 -335 -338 -355 -374 -408 -461 0
-16 -38 -54 -65 -103 -119 -131 -155 -167 -188 -212 -265 -276 -296 -315 -358 -377 -397 -408 -461 0
-16 -38 -54 -65 -103 -119 -131 -155 -167 -188 -212 -242 -262 -299 -315 -358 -374 -411 -431 -461 0
-16 -38 -54 -65 -103 -119 -131 -155 -167 -188 -212 -228 -262 -296 -318 -355 -377 -411 -445 -461 0
-16 -38 -54 -65 -103 -119 -131 -155 -167 -188 -212 -228 -242 -276 -335 -338 -397 -431 -445 -461 0
-16 -36 -50 -74 -100 -112 -140 -146 -174 -191 -225 -243 -258 -279 -333 -340 -394 -415 -430 -448 0
-16 -36 -50 -74 -100 -112 -140 -146 -174 -191 -225 -242 -279 -319 -332 -341 -354 -394 -431 -448 0
-16 -36 -50 -74 -100 -112 -140 -146 -174 -191 -224 -243 -280 -318 -333 -340 -355 -393 -430 -449 0
-16 -36 -50 -74 -100 -112 -140 -146 -174 -191 -224 -242 -259 -280 -332 -341 -393 -414 -431 -449 0
-16 -35 -51 -74 -97 -115 -140 -146 -171 -194 -228 -240 -258 -279 -333 -340 -394 -415 -433 -445 0
-16 -35 -51 -74 -97 -115 -140 -146 -171 -194 -228 -239 -280 -298 -333 -340 -375 -393 -434 -445 0
-16 -35 -51 -74 -97 -115 -140 -146 -171 -194 -227 -240 -279 -299 -332 -341 -374 -394 -433 -446 0
-16 -35 -51 -74 -97 -115 -140 -146 -171 -194 -227 -239 -259 -280 -332 -341 -393 -414 -434 -446 0
-16 -32 -79 -81 -85 -124 -126 -149 -151 -208 -228 -239 -284 -302 -311 -362 -371 -389 -434 -445 0
-16 -32 -79 -81 -85 -124 -126 -149 -151 -208 -224 -243 -282 -291 -304 -369 -382 -391 -430 -449 0
-16 -32 -79 -81 -85 -124 -126 -149 -151 -208 -224 -228 -237 -282 -311 -362 -391 -436 -445 -449 0
-16 -32 -79 -81 -85 -124 -126 -149 -151 -208 -222 -239 -243 -291 -302 -371 -382 -430 -434 -451 0
-16 -32 -78 -82 -85 -123 -127 -148 -152 -208 -227 -240 -285 -302 -311 -362 -371 -388 -433 -446 0
-16 -32 -78 -82 -85 -123 -127 -148 -152 -208 -225 -242 -282 -291 -305 -368 -382 -391 -431 -448 0
-16 -32 -78 -82 -85 -123 -127 -148 -152 -208 -225 -227 -237 -282 -311 -362 -391 -436 -446 -448 0
-16 -32 -78 -82 -85 -123 -127 -148 -152 -208 -222 -240 -242 -291 -302 -371 -382 -431 -433 -451 0
-16 -32 -75 -84 -85 -121 -130 -146 -155 -208 -228 -240 -242 -284 -308 -365 -389 -431 -433 -445 0
-16 -32 -75 -84 -85 -121 -130 -146 -155 -208 -228 -239 -285 -287 -308 -365 -386 -388 -434 -445 0
-16 -32 -75 -84 -85 -121 -130 -146 -155 -208 -228 -239 -284 -305 -307 -366 -368 -389 -434 -445 0
-16 -32 -75 -84 -85 -121 -130 -146 -155 -208 -227 -240 -285 -304 -308 -365 -369 -388 -433 -446 0
-16 -32 -75 -84 -85 -121 -130 -146 -155 -208 -227 -240 -284 -288 -307 -366 -385 -389 -433 -446 0
-16 -32 -75 -84 -85 -121 -130 -146 -155 -208 -227 -239 -243 -285 -307 -366 -388 -430 -434 -446 0
-16 -32 -75 -84 -85 -121 -130 -146 -155 -208 -225 -242 -287 -304 -308 -365 -369 -386 -431 -448 0
-16 -32 -75 -84 -85 -121 -130 -146 -155 -208 -225 -242 -284 -288 -305 -368 -385 -389 -431 -448 0
-16 -32 -75 -84 -85 -121 -130 -146 -155 -208 -225 -239 -243 -287 -305 -368 -386 -430 -434 -448 0
-16 -32 -75 -84 -85 -121 -130 -146 -155 -208 -225 -227 -243 -288 -304 -369 -385 -430 -446 -448 0
-16 -32 -75 -84 -85 -121 -130 -146 -155 -208 -225 -227 -239 -284 -308 -365 -389 -434 -446 -448 0
-16 -32 -75 -84 -85 -121 -130 -146 -155 -208 -224 -243 -288 -305 -307 -366 -368 -385 -430 -449 0
-16 -32 -75 -84 -85 -121 -130 -146 -155 -208 -224 -243 -285 -287 -304 -369 -386 -388 -430 -449 0
-16 -32 -75 -84 -85 -121 -130 -146 -155 -208 -224 -240 -242 -288 -304 -369 -385 -431 -433 -449 0
-16 -32 -75 -84 -85 -121 -130 -146 -155 -208 -224 -228 -242 -287 -305 -368 -386 -431 -445 -449 0
-16 -32 -75 -84 -85 -121 -130 -146 -155 -208 -224 -228 -240 -285 -307 -366 -388 -433 -445 -449 0
-16 -29 -68 -70 -88 -135 -137 -149 -151 -208 -228 -239 -292 -301 -319 -354 -372 -381 -434 -445 0
-16 -29 -68 -70 -88 -135 -137 -149 -151 -208 -224 -243 -299 -312 -321 -352 -361 -374 -430 -449 0
-16 -29 -68 -70 -88 -135 -137 -149 -151 -208 -224 -228 -237 -292 -321 -352 -381 -436 -445 -449 0
-16 -29 -68 -70 -88 -135 -137 -149 -151 -208 -222 -239 -243 -301 -312 -361 -372 -430 -434 -451 0
-16 -29 -67 -71 -88 -134 -138 -148 -152 -208 -227 -240 -292 -301 -318 -355 -372 -381 -433 -446 0
-16 -29 -67 -71 -88 -134 -138 -148 -152 -208 -225 -242 -298 -312 -321 -352 -361 -375 -431 -448 0
-16 -29 -67 -71 -88 -134 -138 -148 -152 -208 -225 -227 -237 -292 -321 -352 -381 -436 -446 -448 0
-16 -29 -67 -71 -88 -134 -138 -148 -152 -208 -222 -240 -242 -301 -312 -361 -372 -431 -433 -451 0
-16 -29 -65 -74 -88 -131 -140 -146 -155 -208 -228 -240 -242 -295 -319 -354 -378 -431 -433 -445 0
-16 -29 -65 -74 -88 -131 -140 -146 -155 -208 -228 -239 -296 -298 -319 -354 -375 -377 -434 -445 0
-16 -29 -65 -74 -88 -131 -140 -146 -155 -208 -228 -239 -295 -316 -318 -355 -357 -378 -434 -445 0
-16 -29 -65 -74 -88 -131 -140 -146 -155 -208 -227 -240 -296 -315 -319 -354 -358 -377 -433 -446 0
-16 -29 -65 -74 -88 -131 -140 -146 -155 -208 -227 -240 -295 -299 -318 -355 -374 -378 -433 -446 0
-16 -29 -65 -74 -88 -131 -140 -146 -155 -208 -227 -239 -243 -296 -318 -355 -377 -430 -434 -446 0
-16 -29 -65 -74 -88 -131 -140 -146 -155 -208 -225 -242 -298 -315 -319 -354 -358 -375 -431 -448 0
-16 -29 -65 -74 -88 -131 -140 -146 -155 -208 -225 -242 -295 -299 -316 -357 -374 -378 -431 -448 0
-16 -29 -65 -74 -88 -131 -140 -146 -155 -208 -225 -239 -243 -298 -316 -357 -375 -430 -434 -448 0
-16 -29 -65 -74 -88 -131 -140 -146 -155 -208 -225 -227 -243 -299 -315 -358 -374 -430 -446 -448 0
-16 -29 -65 -74 -88 -131 -140 -146 -155 -208 -225 -227 -239 -295 -319 -354 -378 -434 -446 -448 0
-16 -29 -65 -74 -88 -131 -140 -146 -155 -208 -224 -243 -299 -316 -318 -355 -357 -374 -430 -449 0
-16 -29 -65 -74 -88 -131 -140 -146 -155 -208 -224 -243 -296 -298 -315 -358 -375 -377 -430 -449 0
-16 -29 -65 -74 -88 -131 -140 -146 -155 -208 -224 -240 -242 -299 -315 -358 -374 -431 -433 -449 0
-16 -29 -65 -74 -88 -131 -140 -146 -155 -208 -224 -228 -242 -298 -316 -357 -375 -431 -445 -449 0
-16 -29 -65 -74 -88 -131 -140 -146 -155 -208 -224 -228 -240 -296 -318 -355 -377 -433 -445 -449 0
-15 -46 -60 -75 -95 -109 -122 -155 -170 -189 -229 -245 -262 -267 -331 -342 -406 -411 -428 -444 0
-15 -46 -60 -75 -95 -109 -122 -155 -170 -189 -229 -240 -269 -284 -331 -342 -389 -404 -433 -444 0
-15 -46 -60 -75 -95 -109 -122 -155 -170 -189 -229 -240 -267 -310 -327 -346 -363 -406 -433 -444 0
-15 -46 -60 -75 -95 -109 -122 -155 -170 -189 -224 -245 -269 -305 -331 -342 -368 -404 -428 -449 0
-15 -46 -60 -75 -95 -109 -122 -155 -170 -189 -224 -245 -267 -289 -327 -346 -384 -406 -428 -449 0
-15 -46 -60 -75 -95 -109 -122 -155 -170 -189 -224 -240 -266 -269 -327 -346 -404 -407 -433 -449 0
-15 -46 -60 -75 -95 -109 -122 -155 -170 -189 -214 -262 -284 -305 -331 -342 -368 -389 -411 -459 0
-15 -46 -60 -75 -95 -109 -122 -155 -170 -189 -214 -262 -267 -289 -310 -363 -384 -406 -411 -459 0
-15 -46 -60 -75 -95 -109 -122 -155 -170 -189 -214 -240 -266 -284 -310 -363 -389 -407 -433 -459 0
-15 -46 -60 -75 -95 -109 -122 -155 -170 -189 -214 -224 -266 -289 -305 -368 -384 -407 -449 -459 0
-15 -46 -60 -75 -95 -109 -122 -155 -170 -189 -214 -224 -240 -267 -331 -342 -406 -433 -449 -459 0
-15 -46 -60 -75 -95 -109 -122 -155 -170 -189 -212 -266 -289 -310 -327 -346 -363 -384 -407 -461 0
-15 -46 -60 -75 -95 -109 -122 -155 -170 -189 -212 -266 -269 -284 -305 -368 -389 -404 -407 -461 0
-15 -46 -60 -75 -95 -109 -122 -155 -170 -189 -212 -245 -262 -289 -305 -368 -384 -411 -428 -461 0
-15 -46 -60 -75 -95 -109 -122 -155 -170 -189 -212 -229 -262 -284 -310 -363 -389 -411 -444 -461 0
-15 -46 -60 -75 -95 -109 -122 -155 -170 -189 -212 -229 -245 -269 -327 -346 -404 -428 -444 -461 0
-15 -45 -61 -75 -94 -110 -122 -155 -169 -190 -230 -244 -262 -267 -331 -342 -406 -411 -429 -443 0
-15 -45 -61 -75 -94 -110 -122 -155 -169 -190 -230 -239 -269 -285 -331 -342 -388 -404 -434 -443 0
-15 -45 -61 -75 -94 -110 -122 -155 -169 -190 -230 -239 -267 -309 -327 -346 -364 -406 -434 -443 0
-15 -45 -61 -75 -94 -110 -122 -155 -169 -190 -225 -244 -269 -304 -331 -342 -369 -404 -429 -448 0
-15 -45 -61 -75 -94 -110 -122 -155 -169 -190 -225 -244 -267 -290 -327 -346 -383 -406 -429 -448 0
-15 -45 -61 -75 -94 -110 -122 -155 -169 -190 -225 -239 -266 -269 -327 -346 -404 -407 -434 -448 0
-15 -45 -61 -75 -94 -110 -122 -155 -169 -190 -214 -262 -285 -304 -331 -342 -369 -388 -411 -459 0
-15 -45 -61 -75 -94 -110 -122 -155 -169 -190 -214 -262 -267 -290 -309 -364 -383 -406 -411 -459 0
-15 -45 -61 -75 -94 -110 -122 -155 -169 -190 -214 -239 -266 -285 -309 -364 -388 -407 -434 -459 0
-15 -45 -61 -75 -94 -110 -122 -155 -169 -190 -214 -225 -266 -290 -304 -369 -383 -407 -448 -459 0
-15 -45 -61 -75 -94 -110 -122 -155 -169 -190 -214 -225 -239 -267 -331 -342 -406 -434 -448 -459 0
-15 -45 -61 -75 -94 -110 -122 -155 -169 -190 -212 -266 -290 -309 -327 -346 -364 -383 -407 -461 0
-15 -45 -61 -75 -94 -110 -122 -155 -169 -190 -212 -266 -269 -285 -304 -369 -388 -404 -407 -461 0
-15 -45 -61 -75 -94 -110 -122 -155 -169 -190 -212 -244 -262 -290 -304 -369 -383 -411 -429 -461 0
-15 -45 -61 -75 -94 -110 -122 -155 -169 -190 -212 -230 -262 -285 -309 -364 -388 -411 -443 -461 0
-15 -45 -61 -75 -94 -110 -122 -155 -169 -190 -212 -230 -244 -269 -327 -346 -404 -429 -443 -461 0
-15 -44 -55 -83 -93 -106 -130 -147 -175 -191 -225 -245 -260 -270 -326 -347 -403 -413 -428 -448 0
-15 -44 -55 -83 -93 -106 -130 -147 -175 -191 -225 -244 -271 -284 -326 -347 -389 -402 -429 -448 0
-15 -44 -55 -83 -93 -106 -130 -147 -175 -191 -224 -245 -270 -285 -325 -348 -388 -403 -428 -449 0
-15 -44 -55 -83 -93 -106 -130 -147 -175 -191 -224 -244 -261 -271 -325 -348 -402 -412 -429 -449 0
-15 -40 -59 -83 -91 -108 -130 -147 -171 -195 -230 -240 -260 -270 -326 -347 -403 -413 -433 -443 0
-15 -40 -59 -83 -91 -108 -130 -147 -171 -195 -230 -239 -270 -305 -325 -348 -368 -403 -434 -443 0
-15 -40 -59 -83 -91 -108 -130 -147 -171 -195 -229 -240 -271 -304 -326 -347 -369 -402 -433 -444 0
-15 -40 -59 -83 -91 -108 -130 -147 -171 -195 -229 -239 -261 -271 -325 -348 -402 -412 -434 -444 0
-15 -39 -53 -66 -102 -116 -131 -155 -170 -189 -229 -245 -262 -272 -336 -337 -401 -411 -428 -444 0
-15 -39 -53 -66 -102 -116 -131 -155 -170 -189 -229 -240 -276 -293 -336 -337 -380 -397 -433 -444 0
-15 -39 -53 -66 -102 -116 -131 -155 -170 -189 -229 -240 -272 -319 -334 -339 -354 -401 -433 -444 0
-15 -39 -53 -66 -102 -116 -131 -155 -170 -189 -224 -245 -276 -314 -336 -337 -359 -397 -428 -449 0
-15 -39 -53 -66 -102 -116 -131 -155 -170 -189 -224 -245 -272 -298 -334 -339 -375 -401 -428 -449 0
-15 -39 -53 -66 -102 -116 -131 -155 -170 -189 -224 -240 -266 -276 -334 -339 -397 -407 -433 -449 0
-15 -39 -53 -66 -102 -116 -131 -155 -170 -189 -214 -262 -293 -314 -336 -337 -359 -380 -411 -459 0
-15 -39 -53 -66 -102 -116 -131 -155 -170 -189 -214 -262 -272 -298 -319 -354 -375 -401 -411 -459 0
-15 -39 -53 -66 -102 -116 -131 -155 -170 -189 -214 -240 -266 -293 -319 -354 -380 -407 -433 -459 0
-15 -39 -53 -66 -102 -116 -131 -155 -170 -189 -214 -224 -266 -298 -314 -359 -375 -407 -449 -459 0
-15 -39 -53 -66 -102 -116 -131 -155 -170 -189 -214 -224 -240 -272 -336 -337 -401 -433 -449 -459 0
-15 -39 -53 -66 -102 -116 -131 -155 -170 -189 -212 -266 -298 -319 -334 -339 -354 -375 -407 -461 0
-15 -39 -53 -66 -102 -116 -131 -155 -170 -189 -212 -266 -276 -293 -314 -359 -380 -397 -407 -461 0
-15 -39 -53 -66 -102 -116 -131 -155 -170 -189 -212 -245 -262 -298 -314 -359 -375 -411 -428 -461 0
-15 -39 -53 -66 -102 -116 -131 -155 -170 -189 -212 -229 -262 -293 -319 -354 -380 -411 -444 -461 0
-15 -39 -53 -66 -102 -116 -131 -155 -170 -189 -212 -229 -245 -276 -334 -339 -397 -428 -444 -461 0
-15 -38 -54 -66 -101 -117 -131 -155 -169 -190 -230 -244 -262 -272 -336 -337 -401 -411 -429 -443 0
-15 -38 -54 -66 -101 -117 -131 -155 -169 -190 -230 -239 -276 -294 -336 -337 -379 -397 -434 -443 0
-15 -38 -54 -66 -101 -117 -131 -155 -169 -190 -230 -239 -272 -318 -334 -339 -355 -401 -434 -443 0
-15 -38 -54 -66 -101 -117 -131 -155 -169 -190 -225 -244 -276 -313 -336 -337 -360 -397 -429 -448 0
-15 -38 -54 -66 -101 -117 -131 -155 -169 -190 -225 -244 -272 -299 -334 -339 -374 -401 -429 -448 0
-15 -38 -54 -66 -101 -117 -131 -155 -169 -190 -225 -239 -266 -276 -334 -339 -397 -407 -434 -448 0
-15 -38 -54 -66 -101 -117 -131 -155 -169 -190 -214 -262 -294 -313 -336 -337 -360 -379 -411 -459 0
-15 -38 -54 -66 -101 -117 -131 -155 -169 -190 -214 -262 -272 -299 -318 -355 -374 -401 -411 -459 0
-15 -38 -54 -66 -101 -117 -131 -155 -169 -190 -214 -239 -266 -294 -318 -355 -379 -407 -434 -459 0
-15 -38 -54 -66 -101 -117 -131 -155 -169 -190 -214 -225 -266 -299 -313 -360 -374 -407 -448 -459 0
-15 -38 -54 -66 -101 -117 -131 -155 -169 -190 -214 -225 -239 -272 -336 -337 -401 -434 -448 -459 0
-15 -38 -54 -66 -101 -117 -131 -155 -169 -190 -212 -266 -299 -318 -334 -339 -355 -374 -407 -461 0
-15 -38 -54 -66 -101 -117 -131 -155 -169 -190 -212 -266 -276 -294 -313 -360 -379 -397 -407 -461 0
-15 -38 -54 -66 -101 -117 -131 -155 -169 -190 -212 -244 -262 -299 -313 -360 -374 -411 -429 -461 0
-15 -38 -54 -66 -101 -117 -131 -155 -169 -190 -212 -230 -262 -294 -318 -355 -379 -411 -443 -461 0
-15 -38 -54 -66 -101 -117 -131 -155 -169 -190 -212 -230 -244 -276 -334 -339 -397 -429 -443 -461 0
-15 -37 -50 -74 -100 -111 -139 -147 -175 -191 -225 -245 -260 -277 -333 -340 -396 -413 -428 -448 0
-15 -37 -50 -74 -100 -111 -139 -147 -175 -191 -225 -244 -277 -319 -332 -341 -354 -396 -429 -448 0
-15 -37 -50 -74 -100 -111 -139 -147 -175 -191 -224 -245 -278 -318 -333 -340 -355 -395 -428 -449 0
-15 -37 -50 -74 -100 -111 -139 -147 -175 -191 -224 -244 -261 -278 -332 -341 -395 -412 -429 -449 0
-15 -35 -52 -74 -96 -115 -139 -147 -171 -195 -230 -240 -260 -277 -333 -340 -396 -413 -433 -443 0
-15 -35 -52 -74 -96 -115 -139 -147 -171 -195 -230 -239 -278 -298 -333 -340 -375 -395 -434 -443 0
-15 -35 -52 -74 -96 -115 -139 -147 -171 -195 -229 -240 -277 -299 -332 -341 -374 -396 -433 -444 0
-15 -35 -52 -74 -96 -115 -139 -147 -171 -195 -229 -239 -261 -278 -332 -341 -395 -412 -434 -444 0
-15 -31 -77 -81 -85 -124 -128 -149 -153 -209 -230 -239 -284 -303 -311 -362 -370 -389 -434 -443 0
-15 -31 -77 -81 -85 -124 -128 -149 -153 -209 -224 -245 -283 -291 -304 -369 -382 -390 -428 -449 0
-15 -31 -77 -81 -85 -124 -128 -149 -153 -209 -224 -230 -238 -283 -311 -362 -390 -435 -443 -449 0
-15 -31 -77 -81 -85 -124 -128 -149 -153 -209 -223 -239 -245 -291 -303 -370 -382 -428 -434 -450 0
-15 -31 -76 -82 -85 -123 -129 -148 -154 -209 -229 -240 -285 -303 -311 -362 -370 -388 -433 -444 0
-15 -31 -76 -82 -85 -123 -129 -148 -154 -209 -225 -244 -283 -291 -305 -368 -382 -390 -429 -448 0
-15 -31 -76 -82 -85 -123 -129 -148 -154 -209 -225 -229 -238 -283 -311 -362 -390 -435 -444 -448 0
-15 -31 -76 -82 -85 -123 -129 -148 -154 -209 -223 -240 -244 -291 -303 -370 -382 -429 -433 -450 0
-15 -31 -75 -83 -85 -122 -130 -147 -155 -209 -230 -240 -244 -284 -310 -363 -389 -429 -433 -443 0
-15 -31 -75 -83 -85 -122 -130 -147 -155 -209 -230 -239 -285 -289 -310 -363 -384 -388 -434 -443 0
-15 -31 -75 -83 -85 -122 -130 -147 -155 -209 -230 -239 -284 -305 -309 -364 -368 -389 -434 -443 0
-15 -31 -75 -83 -85 -122 -130 -147 -155 -209 -229 -240 -285 -304 -310 -363 -369 -388 -433 -444 0
-15 -31 -75 -83 -85 -122 -130 -147 -155 -209 -229 -240 -284 -290 -309 -364 -383 -389 -433 -444 0
-15 -31 -75 -83 -85 -122 -130 -147 -155 -209 -229 -239 -245 -285 -309 -364 -388 -428 -434 -444 0
-15 -31 -75 -83 -85 -122 -130 -147 -155 -209 -225 -244 -289 -304 -310 -363 -369 -384 -429 -448 0
-15 -31 -75 -83 -85 -122 -130 -147 -155 -209 -225 -244 -284 -290 -305 -368 -383 -389 -429 -448 0
-15 -31 -75 -83 -85 -122 -130 -147 -155 -209 -225 -239 -245 -289 -305 -368 -384 -428 -434 -448 0
-15 -31 -75 -83 -85 -122 -130 -147 -155 -209 -225 -229 -245 -290 -304 -369 -383 -428 -444 -448 0
-15 -31 -75 -83 -85 -122 -130 -147 -155 -209 -225 -229 -239 -284 -310 -363 -389 -434 -444 -448 0
-15 -31 -75 -83 -85 -122 -130 -147 -155 -209 -224 -245 -290 -305 -309 -364 -368 -383 -428 -449 0
-15 -31 -75 -83 -85 -122 -130 -147 -155 -209 -224 -245 -285 -289 -304 -369 -384 -388 -428 -449 0
-15 -31 -75 -83 -85 -122 -130 -147 -155 -209 -224 -240 -244 -290 -304 -369 -383 -429 -433 -449 0
-15 -31 -75 -83 -85 -122 -130 -147 -155 -209 -224 -230 -244 -289 -305 -368 -384 -429 -443 -449 0
-15 -31 -75 -83 -85 -122 -130 -147 -155 -209 -224 -230 -240 -285 -309 -364 -388 -433 -443 -449 0
-15 -29 -68 -72 -87 -133 -137 -149 -153 -209 -230 -239 -292 -300 -319 -354 -373 -381 -434 -443 0
-15 -29 -68 -72 -87 -133 -137 -149 -153 -209 -224 -245 -299 -312 -320 -353 -361 -374 -428 -449 0
-15 -29 -68 -72 -87 -133 -137 -149 -153 -209 -224 -230 -238 -292 -320 -353 -381 -435 -443 -449 0
-15 -29 -68 -72 -87 -133 -137 -149 -153 -209 -223 -239 -245 -300 -312 -361 -373 -428 -434 -450 0
-15 -29 -67 -73 -87 -132 -138 -148 -154 -209 -229 -240 -292 -300 -318 -355 -373 -381 -433 -444 0
-15 -29 -67 -73 -87 -132 -138 -148 -154 -209 -225 -244 -298 -312 -320 -353 -361 -375 -429 -448 0
-15 -29 -67 -73 -87 -132 -138 -148 -154 -209 -225 -229 -238 -292 -320 -353 -381 -435 -444 -448 0
-15 -29 -67 -73 -87 -132 -138 -148 -154 -209 -223 -240 -244 -300 -312 -361 -373 -429 -433 -450 0
-15 -29 -66 -74 -87 -131 -139 -147 -155 -209 -230 -240 -244 -293 -319 -354 -380 -429 -433 -443 0
-15 -29 -66 -74 -87 -131 -139 -147 -155 -209 -230 -239 -294 -298 -319 -354 -375 -379 -434 -443 0
-15 -29 -66 -74 -87 -131 -139 -147 -155 -209 -230 -239 -293 -314 -318 -355 -359 -380 -434 -443 0
-15 -29 -66 -74 -87 -131 -139 -147 -155 -209 -229 -240 -294 -313 -319 -354 -360 -379 -433 -444 0
-15 -29 -66 -74 -87 -131 -139 -147 -155 -209 -229 -240 -293 -299 -318 -355 -374 -380 -433 -444 0
-15 -29 -66 -74 -87 -131 -139 -147 -155 -209 -229 -239 -245 -294 -318 -355 -379 -428 -434 -444 0
-15 -29 -66 -74 -87 -131 -139 -147 -155 -209 -225 -244 -298 -313 -319 -354 -360 -375 -429 -448 0
-15 -29 -66 -74 -87 -131 -139 -147 -155 -209 -225 -244 -293 -299 -314 -359 -374 -380 -429 -448 0
-15 -29 -66 -74 -87 -131 -139 -147 -155 -209 -225 -239 -245 -298 -314 -359 -375 -428 -434 -448 0
-15 -29 -66 -74 -87 -131 -139 -147 -155 -209 -225 -229 -245 -299 -313 -360 -374 -428 -444 -448 0
-15 -29 -66 -74 -87 -131 -139 -147 -155 -209 -225 -229 -239 -293 -319 -354 -380 -434 -444 -448 0
-15 -29 -66 -74 -87 -131 -139 -147 -155 -209 -224 -245 -299 -314 -318 -355 -359 -374 -428 -449 0
-15 -29 -66 -74 -87 -131 -139 -147 -155 -209 -224 -245 -294 -298 -313 -360 -375 -379 -428 -449 0
-15 -29 -66 -74 -87 -131 -139 -147 -155 -209 -224 -240 -244 -299 -313 -360 -374 -429 -433 -449 0
-15 -29 -66 -74 -87 -131 -139 -147 -155 -209 -224 -230 -244 -298 -314 -359 -375 -429 -443 -449 0
-15 -29 -66 -74 -87 -131 -139 -147 -155 -209 -224 -230 -240 -294 -318 -355 -379 -433 -443 -449 0
-14 -43 -57 -75 -95 -109 -125 -155 -173 -192 -229 -245 -265 -268 -331 -342 -405 -408 -428 -444 0
-14 -43 -57 -75 -95 -109 -125 -155 -173 -192 -229 -243 -269 -287 -331 -342 -386 -404 -430 -444 0
-14 -43 -57 -75 -95 -109 -125 -155 -173 -192 -229 -243 -268 -310 -330 -343 -363 -405 -430 -444 0
-14 -43 -57 -75 -95 -109 -125 -155 -173 -192 -227 -245 -269 -308 -331 -342 -365 -404 -428 -446 0
-14 -43 -57 -75 -95 -109 -125 -155 -173 -192 -227 -245 -268 -289 -330 -343 -384 -405 -428 -446 0
-14 -43 -57 -75 -95 -109 -125 -155 -173 -192 -227 -243 -266 -269 -330 -343 -404 -407 -430 -446 0
-14 -43 -57 -75 -95 -109 -125 -155 -173 -192 -214 -265 -287 -308 -331 -342 -365 -386 -408 -459 0
-14 -43 -57 -75 -95 -109 -125 -155 -173 -192 -214 -265 -268 -289 -310 -363 -384 -405 -408 -459 0
-14 -43 -57 -75 -95 -109 -125 -155 -173 -192 -214 -243 -266 -287 -310 -363 -386 -407 -430 -459 0
-14 -43 -57 -75 -95 -109 -125 -155 -173 -192 -214 -227 -266 -289 -308 -365 -384 -407 -446 -459 0
-14 -43 -57 -75 -95 -109 -125 -155 -173 -192 -214 -227 -243 -268 -331 -342 -405 -430 -446 -459 0
-14 -43 -57 -75 -95 -109 -125 -155 -173 -192 -213 -266 -289 -310 -330 -343 -363 -384 -407 -460 0
-14 -43 -57 -75 -95 -109 -125 -155 -173 -192 -213 -266 -269 -287 -308 -365 -386 -404 -407 -460 0
-14 -43 -57 -75 -95 -109 -125 -155 -173 -192 -213 -245 -265 -289 -308 -365 -384 -408 -428 -460 0
-14 -43 -57 -75 -95 -109 -125 -155 -173 -192 -213 -229 -265 -287 -310 -363 -386 -408 -444 -460 0
-14 -43 -57 -75 -95 -109 -125 -155 -173 -192 -213 -229 -245 -269 -330 -343 -404 -428 -444 -460 0
-14 -43 -56 -76 -95 -108 -126 -154 -174 -192 -229 -246 -264 -268 -331 -342 -405 -409 -427 -444 0
-14 -43 -56 -76 -95 -108 -126 -154 -174 -192 -229 -243 -270 -286 -331 -342 -387 -403 -430 -444 0
-14 -43 -56 -76 -95 -108 -126 -154 -174 -192 -229 -243 -268 -311 -329 -344 -362 -405 -430 -444 0
-14 -43 -56 -76 -95 -108 -126 -154 -174 -192 -226 -246 -270 -308 -331 -342 -365 -403 -427 -447 0
-14 -43 -56 -76 -95 -108 -126 -154 -174 -192 -226 -246 -268 -289 -329 -344 -384 -405 -427 -447 0
-14 -43 -56 -76 -95 -108 -126 -154 -174 -192 -226 -243 -266 -270 -329 -344 -403 -407 -430 -447 0
-14 -43 -56 -76 -95 -108 -126 -154 -174 -192 -215 -264 -286 -308 -331 -342 -365 -387 -409 -458 0
-14 -43 -56 -76 -95 -108 -126 -154 -174 -192 -215 -264 -268 -289 -311 -362 -384 -405 -409 -458 0
-14 -43 -56 -76 -95 -108 -126 -154 -174 -192 -215 -243 -266 -286 -311 -362 -387 -407 -430 -458 0
-14 -43 -56 -76 -95 -108 -126 -154 -174 -192 -215 -226 -266 -289 -308 -365 -384 -407 -447 -458 0
-14 -43 -56 -76 -95 -108 -126 -154 -174 -192 -215 -226 -243 -268 -331 -342 -405 -430 -447 -458 0
-14 -43 -56 -76 -95 -108 -126 -154 -174 -192 -213 -266 -289 -311 -329 -344 -362 -384 -407 -460 0
-14 -43 -56 -76 -95 -108 -126 -154 -174 -192 -213 -266 -270 -286 -308 -365 -387 -403 -407 -460 0
-14 -43 -56 -76 -95 -108 -126 -154 -174 -192 -213 -246 -264 -289 -308 -365 -384 -409 -427 -460 0
-14 -43 -56 -76 -95 -108 -126 -154 -174 -192 -213 -229 -264 -286 -311 -362 -387 -409 -444 -460 0
-14 -43 -56 -76 -95 -108 -126 -154 -174 -192 -213 -229 -246 -270 -329 -344 -403 -427 -444 -460 0
-14 -43 -55 -78 -95 -107 -128 -152 -175 -192 -227 -246 -264 -269 -330 -343 -404 -409 -427 -446 0
-14 -43 -55 -78 -95 -107 -128 -152 -175 -192 -227 -245 -270 -286 -330 -343 -387 -403 -428 -446 0
-14 -43 -55 -78 -95 -107 -128 -152 -175 -192 -227 -245 -269 -311 -329 -344 -362 -404 -428 -446 0
-14 -43 -55 -78 -95 -107 -128 -152 -175 -192 -226 -246 -270 -310 -330 -343 -363 -403 -427 -447 0
-14 -43 -55 -78 -95 -107 -128 -152 -175 -192 -226 -246 -269 -287 -329 -344 -386 -404 -427 -447 0
-14 -43 -55 -78 -95 -107 -128 -152 -175 -192 -226 -245 -265 -270 -329 -344 -403 -408 -428 -447 0
-14 -43 -55 -78 -95 -107 -128 -152 -175 -192 -215 -264 -286 -310 -330 -343 -363 -387 -409 -458 0
-14 -43 -55 -78 -95 -107 -128 -152 -175 -192 -215 -264 -269 -287 -311 -362 -386 -404 -409 -458 0
-14 -43 -55 -78 -95 -107 -128 -152 -175 -192 -215 -245 -265 -286 -311 -362 -387 -408 -428 -458 0
-14 -43 -55 -78 -95 -107 -128 -152 -175 -192 -215 -226 -265 -287 -310 -363 -386 -408 -447 -458 0
-14 -43 -55 -78 -95 -107 -128 -152 -175 -192 -215 -226 -245 -269 -330 -343 -404 -428 -447 -458 0
-14 -43 -55 -78 -95 -107 -128 -152 -175 -192 -214 -265 -287 -311 -329 -344 -362 -386 -408 -459 0
-14 -43 -55 -78 -95 -107 -128 -152 -175 -192 -214 -265 -270 -286 -310 -363 -387 -403 -408 -459 0
-14 -43 -55 -78 -95 -107 -128 -152 -175 -192 -214 -246 -264 -287 -310 -363 -386 -409 -427 -459 0
-14 -43 -55 -78 -95 -107 -128 -152 -175 -192 -214 -227 -264 -286 -311 -362 -387 -409 -446 -459 0
-14 -43 -55 -78 -95 -107 -128 -152 -175 -192 -214 -227 -246 -270 -329 -344 -403 -427 -446 -459 0
-14 -42 -58 -75 -94 -110 -125 -155 -172 -193 -230 -244 -265 -268 -331 -342 -405 -408 -429 -443 0
-14 -42 -58 -75 -94 -110 -125 -155 -172 -193 -230 -242 -269 -288 -331 -342 -385 -404 -431 -443 0
-14 -42 -58 -75 -94 -110 -125 -155 -172 -193 -230 -242 -268 -309 -330 -343 -364 -405 -431 -443 0
-14 -42 -58 -75 -94 -110 -125 -155 -172 -193 -228 -244 -269 -307 -331 -342 -366 -404 -429 -445 0
-14 -42 -58 -75 -94 -110 -125 -155 -172 -193 -228 -244 -268 -290 -330 -343 -383 -405 -429 -445 0
-14 -42 -58 -75 -94 -110 -125 -155 -172 -193 -228 -242 -266 -269 -330 -343 -404 -407 -431 -445 0
-14 -42 -58 -75 -94 -110 -125 -155 -172 -193 -214 -265 -288 -307 -331 -342 -366 -385 -408 -459 0
-14 -42 -58 -75 -94 -110 -125 -155 -172 -193 -214 -265 -268 -290 -309 -364 -383 -405 -408 -459 0
-14 -42 -58 -75 -94 -110 -125 -155 -172 -193 -214 -242 -266 -288 -309 -364 -385 -407 -431 -459 0
-14 -42 -58 -75 -94 -110 -125 -155 -172 -193 -214 -228 -266 -290 -307 -366 -383 -407 -445 -459 0
-14 -42 -58 -75 -94 -110 -125 -155 -172 -193 -214 -228 -242 -268 -331 -342 -405 -431 -445 -459 0
-14 -42 -58 -75 -94 -110 -125 -155 -172 -193 -213 -266 -290 -309 -330 -343 -364 -383 -407 -460 0
-14 -42 -58 -75 -94 -110 -125 -155 -172 -193 -213 -266 -269 -288 -307 -366 -385 -404 -407 -460 0
-14 -42 -58 -75 -94 -110 -125 -155 -172 -193 -213 -244 -265 -290 -307 -366 -383 -408 -429 -460 0
-14 -42 -58 -75 -94 -110 -125 -155 -172 -193 -213 -230 -265 -288 -309 -364 -385 -408 -443 -460 0
-14 -42 -58 -75 -94 -110 -125 -155 -172 -193 -213 -230 -244 -269 -330 -343 -404 -429 -443 -460 0
-14 -42 -56 -77 -94 -108 -127 -153 -174 -193 -230 -246 -263 -268 -331 -342 -405 -410 -427 -443 0
-14 -42 -56 -77 -94 -108 -127 -153 -174 -193 -230 -242 -271 -286 -331 -342 -387 -402 -431 -443 0
-14 -42 -56 -77 -94 -108 -127 -153 -174 -193 -230 -242 -268 -311 -328 -345 -362 -405 -431 -443 0
-14 -42 -56 -77 -94 -108 -127 -153 -174 -193 -226 -246 -271 -307 -331 -342 -366 -402 -427 -447 0
-14 -42 -56 -77 -94 -108 -127 -153 -174 -193 -226 -246 -268 -290 -328 -345 -383 -405 -427 -447 0
-14 -42 -56 -77 -94 -108 -127 -153 -174 -193 -226 -242 -266 -271 -328 -345 -402 -407 -431 -447 0
-14 -42 -56 -77 -94 -108 -127 -153 -174 -193 -216 -263 -286 -307 -331 -342 -366 -387 -410 -457 0
-14 -42 -56 -77 -94 -108 -127 -153 -174 -193 -216 -263 -268 -290 -311 -362 -383 -405 -410 -457 0
-14 -42 -56 -77 -94 -108 -127 -153 -174 -193 -216 -242 -266 -286 -311 -362 -387 -407 -431 -457 0
-14 -42 -56 -77 -94 -108 -127 -153 -174 -193 -216 -226 -266 -290 -307 -366 -383 -407 -447 -457 0
-14 -42 -56 -77 -94 -108 -127 -153 -174 -193 -216 -226 -242 -268 -331 -342 -405 -431 -447 -457 0
-14 -42 -56 -77 -94 -108 -127 -153 -174 -193 -213 -266 -290 -311 -328 -345 -362 -383 -407 -460 0
-14 -42 -56 -77 -94 -108 -127 -153 -174 -193 -213 -266 -271 -286 -307 -366 -387 -402 -407 -460 0
-14 -42 -56 -77 -94 -108 -127 -153 -174 -193 -213 -246 -263 -290 -307 -366 -383 -410 -427 -460 0
-14 -42 -56 -77 -94 -108 -127 -153 -174 -193 -213 -230 -263 -286 -311 -362 -387 -410 -443 -460 0
-14 -42 -56 -77 -94 -108 -127 -153 -174 -193 -213 -230 -246 -271 -328 -345 -402 -427 -443 -460 0
-14 -42 -55 -79 -94 -107 -129 -151 -175 -193 -228 -246 -263 -269 -330 -343 -404 -410 -427 -445 0
-14 -42 -55 -79 -94 -107 -129 -151 -175 -193 -228 -244 -271 -286 -330 -343 -387 -402 -429 -445 0
-14 -42 -55 -79 -94 -107 -129 -151 -175 -193 -228 -244 -269 -311 -328 -345 -362 -404 -429 -445 0
-14 -42 -55 -79 -94 -107 -129 -151 -175 -193 -226 -246 -271 -309 -330 -343 -364 -402 -427 -447 0
-14 -42 -55 -79 -94 -107 -129 -151 -175 -193 -226 -246 -269 -288 -328 -345 -385 -404 -427 -447 0
-14 -42 -55 -79 -94 -107 -129 -151 -175 -193 -226 -244 -265 -271 -328 -345 -402 -408 -429 -447 0
-14 -42 -55 -79 -94 -107 -129 -151 -175 -193 -216 -263 -286 -309 -330 -343 -364 -387 -410 -457 0
-14 -42 -55 -79 -94 -107 -129 -151 -175 -193 -216 -263 -269 -288 -311 -362 -385 -404 -410 -457 0
-14 -42 -55 -79 -94 -107 -129 -151 -175 -193 -216 -244 -265 -286 -311 -362 -387 -408 -429 -457 0
-14 -42 -55 -79 -94 -107 -129 -151 -175 -193 -216 -226 -265 -288 -309 -364 -385 -408 -447 -457 0
-14 -42 -55 -79 -94 -107 -129 -151 -175 -193 -216 -226 -244 -269 -330 -343 -404 -429 -447 -457 0
-14 -42 -55 -79 -94 -107 -129 -151 -175 -193 -214 -265 -288 -311 -328 -345 -362 -385 -408 -459 0
-14 -42 -55 -79 -94 -107 -129 -151 -175 -193 -214 -265 -271 -286 -309 -364 -387 -402 -408 -459 0
-14 -42 -55 -79 -94 -107 -129 -151 -175 -193 -214 -246 -263 -288 -309 -364 -385 -410 -427 -459 0
-14 -42 -55 -79 -94 -107 -129 -151 -175 -193 -214 -228 -263 -286 -311 -362 -387 -410 -445 -459 0
-14 -42 -55 -79 -94 -107 -129 -151 -175 -193 -214 -228 -246 -271 -328 -345 -402 -427 -445 -459 0
-14 -41 -58 -76 -93 -110 -126 -154 -172 -194 -231 -244 -264 -268 -331 -342 -405 -409 -429 -442 0
-14 -41 -58 -76 -93 -110 -126 -154 -172 -194 -231 -241 -270 -288 -331 -342 -385 -403 -432 -442 0
-14 -41 -58 -76 -93 -110 -126 -154 -172 -194 -231 -241 -268 -309 -329 -344 -364 -405 -432 -442 0
-14 -41 -58 -76 -93 -110 -126 -154 -172 -194 -228 -244 -270 -306 -331 -342 -367 -403 -429 -445 0
-14 -41 -58 -76 -93 -110 -126 -154 -172 -194 -228 -244 -268 -291 -329 -344 -382 -405 -429 -445 0
-14 -41 -58 -76 -93 -110 -126 -154 -172 -194 -228 -241 -266 -270 -329 -344 -403 -407 -432 -445 0
-14 -41 -58 -76 -93 -110 -126 -154 -172 -194 -215 -264 -288 -306 -331 -342 -367 -385 -409 -458 0
-14 -41 -58 -76 -93 -110 -126 -154 -172 -194 -215 -264 -268 -291 -309 -364 -382 -405 -409 -458 0
-14 -41 -58 -76 -93 -110 -126 -154 -172 -194 -215 -241 -266 -288 -309 -364 -385 -407 -432 -458 0
-14 -41 -58 -76 -93 -110 -126 -154 -172 -194 -215 -228 -266 -291 -306 -367 -382 -407 -445 -458 0
-14 -41 -58 -76 -93 -110 -126 -154 -172 -194 -215 -228 -241 -268 -331 -342 -405 -432 -445 -458 0
-14 -41 -58 -76 -93 -110 -126 -154 -172 -194 -213 -266 -291 -309 -329 -344 -364 -382 -407 -460 0
-14 -41 -58 -76 -93 -110 -126 -154 -172 -194 -213 -266 -270 -288 -306 -367 -385 -403 -407 -460 0
-14 -41 -58 -76 -93 -110 -126 -154 -172 -194 -213 -244 -264 -291 -306 -367 -382 -409 -429 -460 0
-14 -41 -58 -76 -93 -110 -126 -154 -172 -194 -213 -231 -264 -288 -309 -364 -385 -409 -442 -460 0
-14 -41 -58 -76 -93 -110 -126 -154 -172 -194 -213 -231 -244 -270 -329 -344 -403 -429 -442 -460 0
-14 -41 -57 -77 -93 -109 -127 -153 -173 -194 -231 -245 -263 -268 -331 -342 -405 -410 -428 -442 0
-14 -41 -57 -77 -93 -109 -127 -153 -173 -194 -231 -241 -271 -287 -331 -342 -386 -402 -432 -442 0
-14 -41 -57 -77 -93 -109 -127 -153 -173 -194 -231 -241 -268 -310 -328 -345 -363 -405 -432 -442 0
-14 -41 -57 -77 -93 -109 -127 -153 -173 -194 -227 -245 -271 -306 -331 -342 -367 -402 -428 -446 0
-14 -41 -57 -77 -93 -109 -127 -153 -173 -194 -227 -245 -268 -291 -328 -345 -382 -405 -428 -446 0
-14 -41 -57 -77 -93 -109 -127 -153 -173 -194 -227 -241 -266 -271 -328 -345 -402 -407 -432 -446 0
-14 -41 -57 -77 -93 -109 -127 -153 -173 -194 -216 -263 -287 -306 -331 -342 -367 -386 -410 -457 0
-14 -41 -57 -77 -93 -109 -127 -153 -173 -194 -216 -263 -268 -291 -310 -363 -382 -405 -410 -457 0
-14 -41 -57 -77 -93 -109 -127 -153 -173 -194 -216 -241 -266 -287 -310 -363 -386 -407 -432 -457 0
-14 -41 -57 -77 -93 -109 -127 -153 -173 -194 -216 -227 -266 -291 -306 -367 -382 -407 -446 -457 0
-14 -41 -57 -77 -93 -109 -127 -153 -173 -194 -216 -227 -241 -268 -331 -342 -405 -432 -446 -457 0
-14 -41 -57 -77 -93 -109 -127 -153 -173 -194 -213 -266 -291 -310 -328 -345 -363 -382 -407 -460 0
-14 -41 -57 -77 -93 -109 -127 -153 -173 -194 -213 -266 -271 -287 -306 -367 -386 -402 -407 -460 0
-14 -41 -57 -77 -93 -109 -127 -153 -173 -194 -213 -245 -263 -291 -306 -367 -382 -410 -428 -460 0
-14 -41 -57 -77 -93 -109 -127 -153 -173 -194 -213 -231 -263 -287 -310 -363 -386 -410 -442 -460 0
-14 -41 -57 -77 -93 -109 -127 -153 -173 -194 -213 -231 -245 -271 -328 -345 -402 -428 -442 -460 0
-14 -41 -55 -80 -93 -107 -130 -150 -175 -194 -228 -245 -263 -270 -329 -344 -403 -410 -428 -445 0
-14 -41 -55 -80 -93 -107 -130 -150 -175 -194 -228 -244 -271 -287 -329 -344 -386 -402 -429 -445 0
-14 -41 -55 -80 -93 -107 -130 -150 -175 -194 -228 -244 -270 -310 -328 -345 -363 -403 -429 -445 0
-14 -41 -55 -80 -93 -107 -130 -150 -175 -194 -227 -245 -271 -309 -329 -344 -364 -402 -428 -446 0
-14 -41 -55 -80 -93 -107 -130 -150 -175 -194 -227 -245 -270 -288 -328 -345 -385 -403 -428 -446 0
-14 -41 -55 -80 -93 -107 -130 -150 -175 -194 -227 -244 -264 -271 -328 -345 -402 -409 -429 -446 0
-14 -41 -55 -80 -93 -107 -130 -150 -175 -194 -216 -263 -287 -309 -329 -344 -364 -386 -410 -457 0
-14 -41 -55 -80 -93 -107 -130 -150 -175 -194 -216 -263 -270 -288 -310 -363 -385 -403 -410 -457 0
-14 -41 -55 -80 -93 -107 -130 -150 -175 -194 -216 -244 -264 -287 -310 -363 -386 -409 -429 -457 0
-14 -41 -55 -80 -93 -107 -130 -150 -175 -194 -216 -227 -264 -288 -309 -364 -385 -409 -446 -457 0
-14 -41 -55 -80 -93 -107 -130 -150 -175 -194 -216 -227 -244 -270 -329 -344 -403 -429 -446 -457 0
-14 -41 -55 -80 -93 -107 -130 -150 -175 -194 -215 -264 -288 -310 -328 -345 -363 -385 -409 -458 0
-14 -41 -55 -80 -93 -107 -130 -150 -175 -194 -215 -264 -271 -287 -309 -364 -386 -402 -409 -458 0
-14 -41 -55 -80 -93 -107 -130 -150 -175 -194 -215 -245 -263 -288 -309 -364 -385 -410 -428 -458 0
-14 -41 -55 -80 -93 -107 -130 -150 -175 -194 -215 -228 -263 -287 -310 -363 -386 -410 -445 -458 0
-14 -41 -55 -80 -93 -107 -130 -150 -175 -194 -215 -228 -245 -271 -328 -345 -402 -428 -445 -458 0
-14 -40 -58 -78 -92 -110 -128 -152 -172 -195 -231 -242 -264 -269 -330 -343 -404 -409 -431 -442 0
-14 -40 -58 -78 -92 -110 -128 -152 -172 -195 -231 -241 -270 -290 -330 -343 -383 -403 -432 -442 0
-14 -40 -58 -78 -92 -110 -128 -152 -172 -195 -231 -241 -269 -307 -329 -344 -366 -404 -432 -442 0
-14 -40 -58 -78 -92 -110 -128 -152 -172 -195 -230 -242 -270 -306 -330 -343 -367 -403 -431 -443 0
-14 -40 -58 -78 -92 -110 -128 -152 -172 -195 -230 -242 -269 -291 -329 -344 -382 -404 -431 -443 0
-14 -40 -58 -78 -92 -110 -128 -152 -172 -195 -230 -241 -265 -270 -329 -344 -403 -408 -432 -443 0
-14 -40 -58 -78 -92 -110 -128 -152 -172 -195 -215 -264 -290 -306 -330 -343 -367 -383 -409 -458 0
-14 -40 -58 -78 -92 -110 -128 -152 -172 -195 -215 -264 -269 -291 -307 -366 -382 -404 -409 -458 0
-14 -40 -58 -78 -92 -110 -128 -152 -172 -195 -215 -241 -265 -290 -307 -366 -383 -408 -432 -458 0
-14 -40 -58 -78 -92 -110 -128 -152 -172 -195 -215 -230 -265 -291 -306 -367 -382 -408 -443 -458 0
-14 -40 -58 -78 -92 -110 -128 -152 -172 -195 -215 -230 -241 -269 -330 -343 -404 -432 -443 -458 0
-14 -40 -58 -78 -92 -110 -128 -152 -172 -195 -214 -265 -291 -307 -329 -344 -366 -382 -408 -459 0
-14 -40 -58 -78 -92 -110 -128 -152 -172 -195 -214 -265 -270 -290 -306 -367 -383 -403 -408 -459 0
-14 -40 -58 -78 -92 -110 -128 -152 -172 -195 -214 -242 -264 -291 -306 -367 -382 -409 -431 -459 0
-14 -40 -58 -78 -92 -110 -128 -152 -172 -195 -214 -231 -264 -290 -307 -366 -383 -409 -442 -459 0
-14 -40 -58 -78 -92 -110 -128 -152 -172 -195 -214 -231 -242 -270 -329 -344 -403 -431 -442 -459 0
-14 -40 -57 -79 -92 -109 -129 -151 -173 -195 -231 -243 -263 -269 -330 -343 -404 -410 -430 -442 0
-14 -40 -57 -79 -92 -109 -129 -151 -173 -195 -231 -241 -271 -289 -330 -343 -384 -402 -432 -442 0
-14 -40 -57 -79 -92 -109 -129 -151 -173 -195 -231 -241 -269 -308 -328 -345 -365 -404 -432 -442 0
-14 -40 -57 -79 -92 -109 -129 -151 -173 -195 -229 -243 -271 -306 -330 -343 -367 -402 -430 -444 0
-14 -40 -57 -79 -92 -109 -129 -151 -173 -195 -229 -243 -269 -291 -328 -345 -382 -404 -430 -444 0
-14 -40 -57 -79 -92 -109 -129 -151 -173 -195 -229 -241 -265 -271 -328 -345 -402 -408 -432 -444 0
-14 -40 -57 -79 -92 -109 -129 -151 -173 -195 -216 -263 -289 -306 -330 -343 -367 -384 -410 -457 0
-14 -40 -57 -79 -92 -109 -129 -151 -173 -195 -216 -263 -269 -291 -308 -365 -382 -404 -410 -457 0
-14 -40 -57 -79 -92 -109 -129 -151 -173 -195 -216 -241 -265 -289 -308 -365 -384 -408 -432 -457 0
-14 -40 -57 -79 -92 -109 -129 -151 -173 -195 -216 -229 -265 -291 -306 -367 -382 -408 -444 -457 0
-14 -40 -57 -79 -92 -109 -129 -151 -173 -195 -216 -229 -241 -269 -330 -343 -404 -432 -444 -457 0
-14 -40 -57 -79 -92 -109 -129 -151 -173 -195 -214 -265 -291 -308 -328 -345 -365 -382 -408 -459 0
-14 -40 -57 -79 -92 -109 -129 -151 -173 -195 -214 -265 -271 -289 -306 -367 -384 -402 -408 -459 0
-14 -40 -57 -79 -92 -109 -129 -151 -173 -195 -214 -243 -263 -291 -306 -367 -382 -410 -430 -459 0
-14 -40 -57 -79 -92 -109 -129 -151 -173 -195 -214 -231 -263 -289 -308 -365 -384 -410 -442 -459 0
-14 -40 -57 -79 -92 -109 -129 -151 -173 -195 -214 -231 -243 -271 -328 -345 -402 -430 -442 -459 0
-14 -40 -56 -80 -92 -108 -130 -150 -174 -195 -230 -243 -263 -270 -329 -344 -403 -410 -430 -443 0
-14 -40 -56 -80 -92 -108 -130 -150 -174 -195 -230 -242 -271 -289 -329 -344 -384 -402 -431 -443 0
-14 -40 -56 -80 -92 -108 -130 -150 -174 -195 -230 -242 -270 -308 -328 -345 -365 -403 -431 -443 0
-14 -40 -56 -80 -92 -108 -130 -150 -174 -195 -229 -243 -271 -307 -329 -344 -366 -402 -430 -444 0
-14 -40 -56 -80 -92 -108 -130 -150 -174 -195 -229 -243 -270 -290 -328 -345 -383 -403 -430 -444 0
-14 -40 -56 -80 -92 -108 -130 -150 -174 -195 -229 -242 -264 -271 -328 -345 -402 -409 -431 -444 0
-14 -40 -56 -80 -92 -108 -130 -150 -174 -195 -216 -263 -289 -307 -329 -344 -366 -384 -410 -457 0
-14 -40 -56 -80 -92 -108 -130 -150 -174 -195 -216 -263 -270 -290 -308 -365 -383 -403 -410 -457 0
-14 -40 -56 -80 -92 -108 -130 -150 -174 -195 -216 -242 -264 -289 -308 -365 -384 -409 -431 -457 0
-14 -40 -56 -80 -92 -108 -130 -150 -174 -195 -216 -229 -264 -290 -307 -366 -383 -409 -444 -457 0
-14 -40 -56 -80 -92 -108 -130 -150 -174 -195 -216 -229 -242 -270 -329 -344 -403 -431 -444 -457 0
-14 -40 -56 -80 -92 -108 -130 -150 -174 -195 -215 -264 -290 -308 -328 -345 -365 -383 -409 -458 0
-14 -40 -56 -80 -92 -108 -130 -150 -174 -195 -215 -264 -271 -289 -307 -366 -384 -402 -409 -458 0
-14 -40 -56 -80 -92 -108 -130 -150 -174 -195 -215 -243 -263 -290 -307 -366 -383 -410 -430 -458 0
-14 -40 -56 -80 -92 -108 -130 -150 -174 -195 -215 -230 -263 -289 -308 -365 -384 -410 -443 -458 0
-14 -40 -56 -80 -92 -108 -130 -150 -174 -195 -215 -230 -243 -271 -328 -345 -402 -430 -443 -458 0
-14 -39 -53 -69 -99 -113 -131 -155 -173 -192 -229 -245 -265 -272 -335 -338 -401 -408 -428 -444 0
-14 -39 -53 -69 -99 -113 -131 -155 -173 -192 -229 -243 -273 -293 -335 -338 -380 -400 -430 -444 0
-14 -39 -53 -69 -99 -113 -131 -155 -173 -192 -229 -243 -272 -316 -334 -339 -357 -401 -430 -444 0
-14 -39 -53 -69 -99 -113 -131 -155 -173 -192 -227 -245 -273 -314 -335 -338 -359 -400 -428 -446 0
-14 -39 -53 -69 -99 -113 -131 -155 -173 -192 -227 -245 -272 -295 -334 -339 -378 -401 -428 -446 0
-14 -39 -53 -69 -99 -113 -131 -155 -173 -192 -227 -243 -266 -273 -334 -339 -400 -407 -430 -446 0
-14 -39 -53 -69 -99 -113 -131 -155 -173 -192 -214 -265 -293 -314 -335 -338 -359 -380 -408 -459 0
-14 -39 -53 -69 -99 -113 -131 -155 -173 -192 -214 -265 -272 -295 -316 -357 -378 -401 -408 -459 0
-14 -39 -53 -69 -99 -113 -131 -155 -173 -192 -214 -243 -266 -293 -316 -357 -380 -407 -430 -459 0
-14 -39 -53 -69 -99 -113 -131 -155 -173 -192 -214 -227 -266 -295 -314 -359 -378 -407 -446 -459 0
-14 -39 -53 -69 -99 -113 -131 -155 -173 -192 -214 -227 -243 -272 -335 -338 -401 -430 -446 -459 0
-14 -39 -53 -69 -99 -113 -131 -155 -173 -192 -213 -266 -295 -316 -334 -339 -357 -378 -407 -460 0
-14 -39 -53 -69 -99 -113 -131 -155 -173 -192 -213 -266 -273 -293 -314 -359 -380 -400 -407 -460 0
-14 -39 -53 -69 -99 -113 -131 -155 -173 -192 -213 -245 -265 -295 -314 -359 -378 -408 -428 -460 0
-14 -39 -53 -69 -99 -113 -131 -155 -173 -192 -213 -229 -265 -293 -316 -357 -380 -408 -444 -460 0
-14 -39 -53 -69 -99 -113 -131 -155 -173 -192 -213 -229 -245 -273 -334 -339 -400 -428 -444 -460 0
-14 -39 -52 -70 -99 -112 -132 -154 -174 -192 -229 -246 -264 -272 -335 -338 -401 -409 -427 -444 0
-14 -39 -52 -70 -99 -112 -132 -154 -174 -192 -229 -243 -274 -292 -335 -338 -381 -399 -430 -444 0
-14 -39 -52 -70 -99 -112 -132 -154 -174 -192 -229 -243 -272 -317 -333 -340 -356 -401 -430 -444 0
-14 -39 -52 -70 -99 -112 -132 -154 -174 -192 -226 -246 -274 -314 -335 -338 -359 -399 -427 -447 0
-14 -39 -52 -70 -99 -112 -132 -154 -174 -192 -226 -246 -272 -295 -333 -340 -378 -401 -427 -447 0
-14 -39 -52 -70 -99 -112 -132 -154 -174 -192 -226 -243 -266 -274 -333 -340 -399 -407 -430 -447 0
-14 -39 -52 -70 -99 -112 -132 -154 -174 -192 -215 -264 -292 -314 -335 -338 -359 -381 -409 -458 0
-14 -39 -52 -70 -99 -112 -132 -154 -174 -192 -215 -264 -272 -295 -317 -356 -378 -401 -409 -458 0
-14 -39 -52 -70 -99 -112 -132 -154 -174 -192 -215 -243 -266 -292 -317 -356 -381 -407 -430 -458 0
-14 -39 -52 -70 -99 -112 -132 -154 -174 -192 -215 -226 -266 -295 -314 -359 -378 -407 -447 -458 0
-14 -39 -52 -70 -99 -112 -132 -154 -174 -192 -215 -226 -243 -272 -335 -338 -401 -430 -447 -458 0
-14 -39 -52 -70 -99 -112 -132 -154 -174 -192 -213 -266 -295 -317 -333 -340 -356 -378 -407 -460 0
-14 -39 -52 -70 -99 -112 -132 -154 -174 -192 -213 -266 -274 -292 -314 -359 -381 -399 -407 -460 0
-14 -39 -52 -70 -99 -112 -132 -154 -174 -192 -213 -246 -264 -295 -314 -359 -378 -409 -427 -460 0
-14 -39 -52 -70 -99 -112 -132 -154 -174 -192 -213 -229 -264 -292 -317 -356 -381 -409 -444 -460 0
-14 -39 -52 -70 -99 -112 -132 -154 -174 -192 -213 -229 -246 -274 -333 -340 -399 -427 -444 -460 0
-14 -39 -51 -72 -99 -111 -134 -152 -175 -192 -227 -246 -264 -273 -334 -339 -400 -409 -427 -446 0
-14 -39 -51 -72 -99 -111 -134 -152 -175 -192 -227 -245 -274 -292 -334 -339 -381 -399 -428 -446 0
-14 -39 -51 -72 -99 -111 -134 -152 -175 -192 -227 -245 -273 -317 -333 -340 -356 -400 -428 -446 0
-14 -39 -51 -72 -99 -111 -134 -152 -175 -192 -226 -246 -274 -316 -334 -339 -357 -399 -427 -447 0
-14 -39 -51 -72 -99 -111 -134 -152 -175 -192 -226 -246 -273 -293 -333 -340 -380 -400 -427 -447 0
-14 -39 -51 -72 -99 -111 -134 -152 -175 -192 -226 -245 -265 -274 -333 -340 -399 -408 -428 -447 0
-14 -39 -51 -72 -99 -111 -134 -152 -175 -192 -215 -264 -292 -316 -334 -339 -357 -381 -409 -458 0
-14 -39 -51 -72 -99 -111 -134 -152 -175 -192 -215 -264 -273 -293 -317 -356 -380 -400 -409 -458 0
-14 -39 -51 -72 -99 -111 -134 -152 -175 -192 -215 -245 -265 -292 -317 -356 -381 -408 -428 -458 0
-14 -39 -51 -72 -99 -111 -134 -152 -175 -192 -215 -226 -265 -293 -316 -357 -380 -408 -447 -458 0
-14 -39 -51 -72 -99 -111 -134 -152 -175 -192 -215 -226 -245 -273 -334 -339 -400 -428 -447 -458 0
-14 -39 -51 -72 -99 -111 -134 -152 -175 -192 -214 -265 -293 -317 -333 -340 -356 -380 -408 -459 0
-14 -39 -51 -72 -99 -111 -134 -152 -175 -192 -214 -265 -274 -292 -316 -357 -381 -399 -408 -459 0
-14 -39 -51 -72 -99 -111 -134 -152 -175 -192 -214 -246 -264 -293 -316 -357 -380 -409 -427 -459 0
-14 -39 -51 -72 -99 -111 -134 -152 -175 -192 -214 -227 -264 -292 -317 -356 -381 -409 -446 -459 0
-14 -39 -51 -72 -99 -111 -134 -152 -175 -192 -214 -227 -246 -274 -333 -340 -399 -427 -446 -459 0
-14 -38 -54 -69 -98 -114 -131 -155 -172 -193 -230 -244 -265 -272 -335 -338 -401 -408 -429 -443 0
-14 -38 -54 -69 -98 -114 -131 -155 -172 -193 -230 -242 -273 -294 -335 -338 -379 -400 -431 -443 0
-14 -38 -54 -69 -98 -114 -131 -155 -172 -193 -230 -242 -272 -315 -334 -339 -358 -401 -431 -443 0
-14 -38 -54 -69 -98 -114 -131 -155 -172 -193 -228 -244 -273 -313 -335 -338 -360 -400 -429 -445 0
-14 -38 -54 -69 -98 -114 -131 -155 -172 -193 -228 -244 -272 -296 -334 -339 -377 -401 -429 -445 0
-14 -38 -54 -69 -98 -114 -131 -155 -172 -193 -228 -242 -266 -273 -334 -339 -400 -407 -431 -445 0
-14 -38 -54 -69 -98 -114 -131 -155 -172 -193 -214 -265 -294 -313 -335 -338 -360 -379 -408 -459 0
-14 -38 -54 -69 -98 -114 -131 -155 -172 -193 -214 -265 -272 -296 -315 -358 -377 -401 -408 -459 0
-14 -38 -54 -69 -98 -114 -131 -155 -172 -193 -214 -242 -266 -294 -315 -358 -379 -407 -431 -459 0
-14 -38 -54 -69 -98 -114 -131 -155 -172 -193 -214 -228 -266 -296 -313 -360 -377 -407 -445 -459 0
-14 -38 -54 -69 -98 -114 -131 -155 -172 -193 -214 -228 -242 -272 -335 -338 -401 -431 -445 -459 0
-14 -38 -54 -69 -98 -114 -131 -155 -172 -193 -213 -266 -296 -315 -334 -339 -358 -377 -407 -460 0
-14 -38 -54 -69 -98 -114 -131 -155 -172 -193 -213 -266 -273 -294 -313 -360 -379 -400 -407 -460 0
-14 -38 -54 -69 -98 -114 -131 -155 -172 -193 -213 -244 -265 -296 -313 -360 -377 -408 -429 -460 0
-14 -38 -54 -69 -98 -114 -131 -155 -172 -193 -213 -230 -265 -294 -315 -358 -379 -408 -443 -460 0
-14 -38 -54 -69 -98 -114 -131 -155 -172 -193 -213 -230 -244 -273 -334 -339 -400 -429 -443 -460 0
-14 -38 -52 -71 -98 -112 -133 -153 -174 -193 -230 -246 -263 -272 -335 -338 -401 -410 -427 -443 0
-14 -38 -52 -71 -98 -112 -133 -153 -174 -193 -230 -242 -275 -292 -335 -338 -381 -398 -431 -443 0
-14 -38 -52 -71 -98 -112 -133 -153 -174 -193 -230 -242 -272 -317 -332 -341 -356 -401 -431 -443 0
-14 -38 -52 -71 -98 -112 -133 -153 -174 -193 -226 -246 -275 -313 -335 -338 -360 -398 -427 -447 0
-14 -38 -52 -71 -98 -112 -133 -153 -174 -193 -226 -246 -272 -296 -332 -341 -377 -401 -427 -447 0
-14 -38 -52 -71 -98 -112 -133 -153 -174 -193 -226 -242 -266 -275 -332 -341 -398 -407 -431 -447 0
-14 -38 -52 -71 -98 -112 -133 -153 -174 -193 -216 -263 -292 -313 -335 -338 -360 -381 -410 -457 0
-14 -38 -52 -71 -98 -112 -133 -153 -174 -193 -216 -263 -272 -296 -317 -356 -377 -401 -410 -457 0
-14 -38 -52 -71 -98 -112 -133 -153 -174 -193 -216 -242 -266 -292 -317 -356 -381 -407 -431 -457 0
-14 -38 -52 -71 -98 -112 -133 -153 -174 -193 -216 -226 -266 -296 -313 -360 -377 -407 -447 -457 0
-14 -38 -52 -71 -98 -112 -133 -153 -174 -193 -216 -226 -242 -272 -335 -338 -401 -431 -447 -457 0
-14 -38 -52 -71 -98 -112 -133 -153 -174 -193 -213 -266 -296 -317 -332 -341 -356 -377 -407 -460 0
-14 -38 -52 -71 -98 -112 -133 -153 -174 -193 -213 -266 -275 -292 -313 -360 -381 -398 -407 -460 0
-14 -38 -52 -71 -98 -112 -133 -153 -174 -193 -213 -246 -263 -296 -313 -360 -377 -410 -427 -460 0
-14 -38 -52 -71 -98 -112 -133 -153 -174 -193 -213 -230 -263 -292 -317 -356 -381 -410 -443 -460 0
-14 -38 -52 -71 -98 -112 -133 -153 -174 -193 -213 -230 -246 -275 -332 -341 -398 -427 -443 -460 0
-14 -38 -51 -73 -98 -111 -135 -151 -175 -193 -228 -246 -263 -273 -334 -339 -400 -410 -427 -445 0
-14 -38 -51 -73 -98 -111 -135 -151 -175 -193 -228 -244 -275 -292 -334 -339 -381 -398 -429 -445 0
-14 -38 -51 -73 -98 -111 -135 -151 -175 -193 -228 -244 -273 -317 -332 -341 -356 -400 -429 -445 0
-14 -38 -51 -73 -98 -111 -135 -151 -175 -193 -226 -246 -275 -315 -334 -339 -358 -398 -427 -447 0
-14 -38 -51 -73 -98 -111 -135 -151 -175 -193 -226 -246 -273 -294 -332 -341 -379 -400 -427 -447 0
-14 -38 -51 -73 -98 -111 -135 -151 -175 -193 -226 -244 -265 -275 -332 -341 -398 -408 -429 -447 0
-14 -38 -51 -73 -98 -111 -135 -151 -175 -193 -216 -263 -292 -315 -334 -339 -358 -381 -410 -457 0
-14 -38 -51 -73 -98 -111 -135 -151 -175 -193 -216 -263 -273 -294 -317 -356 -379 -400 -410 -457 0
-14 -38 -51 -73 -98 -111 -135 -151 -175 -193 -216 -244 -265 -292 -317 -356 -381 -408 -429 -457 0
-14 -38 -51 -73 -98 -111 -135 -151 -175 -193 -216 -226 -265 -294 -315 -358 -379 -408 -447 -457 0
-14 -38 -51 -73 -98 -111 -135 -151 -175 -193 -216 -226 -244 -273 -334 -339 -400 -429 -447 -457 0
-14 -38 -51 -73 -98 -111 -135 -151 -175 -193 -214 -265 -294 -317 -332 -341 -356 -379 -408 -459 0
-14 -38 -51 -73 -98 -111 -135 -151 -175 -193 -214 -265 -275 -292 -315 -358 -381 -398 -408 -459 0
-14 -38 -51 -73 -98 -111 -135 -151 -175 -193 -214 -246 -263 -294 -315 -358 -379 -410 -427 -459 0
-14 -38 -51 -73 -98 -111 -135 -151 -175 -193 -214 -228 -263 -292 -317 -356 -381 -410 -445 -459 0
-14 -38 -51 -73 -98 -111 -135 -151 -175 -193 -214 -228 -246 -275 -332 -341 -398 -427 -445 -459 0
-14 -37 -54 -70 -97 -114 -132 -154 -172 -194 -231 -244 -264 -272 -335 -338 -401 -409 -429 -442 0
-14 -37 -54 -70 -97 -114 -132 -154 -172 -194 -231 -241 -274 -294 -335 -338 -379 -399 -432 -442 0
-14 -37 -54 -70 -97 -114 -132 -154 -172 -194 -231 -241 -272 -315 -333 -340 -358 -401 -432 -442 0
-14 -37 -54 -70 -97 -114 -132 -154 -172 -194 -228 -244 -274 -312 -335 -338 -361 -399 -429 -445 0
-14 -37 -54 -70 -97 -114 -132 -154 -172 -194 -228 -244 -272 -297 -333 -340 -376 -401 -429 -445 0
-14 -37 -54 -70 -97 -114 -132 -154 -172 -194 -228 -241 -266 -274 -333 -340 -399 -407 -432 -445 0
-14 -37 -54 -70 -97 -114 -132 -154 -172 -194 -215 -264 -294 -312 -335 -338 -361 -379 -409 -458 0
-14 -37 -54 -70 -97 -114 -132 -154 -172 -194 -215 -264 -272 -297 -315 -358 -376 -401 -409 -458 0
-14 -37 -54 -70 -97 -114 -132 -154 -172 -194 -215 -241 -266 -294 -315 -358 -379 -407 -432 -458 0
-14 -37 -54 -70 -97 -114 -132 -154 -172 -194 -215 -228 -266 -297 -312 -361 -376 -407 -445 -458 0
-14 -37 -54 -70 -97 -114 -132 -154 -172 -194 -215 -228 -241 -272 -335 -338 -401 -432 -445 -458 0
-14 -37 -54 -70 -97 -114 -132 -154 -172 -194 -213 -266 -297 -315 -333 -340 -358 -376 -407 -460 0
-14 -37 -54 -70 -97 -114 -132 -154 -172 -194 -213 -266 -274 -294 -312 -361 -379 -399 -407 -460 0
-14 -37 -54 -70 -97 -114 -132 -154 -172 -194 -213 -244 -264 -297 -312 -361 -376 -409 -429 -460 0
-14 -37 -54 -70 -97 -114 -132 -154 -172 -194 -213 -231 -264 -294 -315 -358 -379 -409 -442 -460 0
-14 -37 -54 -70 -97 -114 -132 -154 -172 -194 -213 -231 -244 -274 -333 -340 -399 -429 -442 -460 0
-14 -37 -53 -71 -97 -113 -133 -153 -173 -194 -231 -245 -263 -272 -335 -338 -401 -410 -428 -442 0
-14 -37 -53 -71 -97 -113 -133 -153 -173 -194 -231 -241 -275 -293 -335 -338 -380 -398 -432 -442 0
-14 -37 -53 -71 -97 -113 -133 -153 -173 -194 -231 -241 -272 -316 -332 -341 -357 -401 -432 -442 0
-14 -37 -53 -71 -97 -113 -133 -153 -173 -194 -227 -245 -275 -312 -335 -338 -361 -398 -428 -446 0
-14 -37 -53 -71 -97 -113 -133 -153 -173 -194 -227 -245 -272 -297 -332 -341 -376 -401 -428 -446 0
-14 -37 -53 -71 -97 -113 -133 -153 -173 -194 -227 -241 -266 -275 -332 -341 -398 -407 -432 -446 0
-14 -37 -53 -71 -97 -113 -133 -153 -173 -194 -216 -263 -293 -312 -335 -338 -361 -380 -410 -457 0
-14 -37 -53 -71 -97 -113 -133 -153 -173 -194 -216 -263 -272 -297 -316 -357 -376 -401 -410 -457 0
-14 -37 -53 -71 -97 -113 -133 -153 -173 -194 -216 -241 -266 -293 -316 -357 -380 -407 -432 -457 0
-14 -37 -53 -71 -97 -113 -133 -153 -173 -194 -216 -227 -266 -297 -312 -361 -376 -407 -446 -457 0
-14 -37 -53 -71 -97 -113 -133 -153 -173 -194 -216 -227 -241 -272 -335 -338 -401 -432 -446 -457 0
-14 -37 -53 -71 -97 -113 -133 -153 -173 -194 -213 -266 -297 -316 -332 -341 -357 -376 -407 -460 0
-14 -37 -53 -71 -97 -113 -133 -153 -173 -194 -213 -266 -275 -293 -312 -361 -380 -398 -407 -460 0
-14 -37 -53 -71 -97 -113 -133 -153 -173 -194 -213 -245 -263 -297 -312 -361 -376 -410 -428 -460 0
-14 -37 -53 -71 -97 -113 -133 -153 -173 -194 -213 -231 -263 -293 -316 -357 -380 -410 -442 -460 0
-14 -37 -53 -71 -97 -113 -133 -153 -173 -194 -213 -231 -245 -275 -332 -341 -398 -428 -442 -460 0
-14 -37 -51 -74 -97 -111 -136 -150 -175 -194 -228 -245 -263 -274 -333 -340 -399 -410 -428 -445 0
-14 -37 -51 -74 -97 -111 -136 -150 -175 -194 -228 -244 -275 -293 -333 -340 -380 -398 -429 -445 0
-14 -37 -51 -74 -97 -111 -136 -150 -175 -194 -228 -244 -274 -316 -332 -341 -357 -399 -429 -445 0
-14 -37 -51 -74 -97 -111 -136 -150 -175 -194 -227 -245 -275 -315 -333 -340 -358 -398 -428 -446 0
-14 -37 -51 -74 -97 -111 -136 -150 -175 -194 -227 -245 -274 -294 -332 -341 -379 -399 -428 -446 0
-14 -37 -51 -74 -97 -111 -136 -150 -175 -194 -227 -244 -264 -275 -332 -341 -398 -409 -429 -446 0
-14 -37 -51 -74 -97 -111 -136 -150 -175 -194 -216 -263 -293 -315 -333 -340 -358 -380 -410 -457 0
-14 -37 -51 -74 -97 -111 -136 -150 -175 -194 -216 -263 -274 -294 -316 -357 -379 -399 -410 -457 0
-14 -37 -51 -74 -97 -111 -136 -150 -175 -194 -216 -244 -264 -293 -316 -357 -380 -409 -429 -457 0
-14 -37 -51 -74 -97 -111 -136 -150 -175 -194 -216 -227 -264 -294 -315 -358 -379 -409 -446 -457 0
-14 -37 -51 -74 -97 -111 -136 -150 -175 -194 -216 -227 -244 -274 -333 -340 -399 -429 -446 -457 0
-14 -37 -51 -74 -97 -111 -136 -150 -175 -194 -215 -264 -294 -316 -332 -341 -357 -379 -409 -458 0
-14 -37 -51 -74 -97 -111 -136 -150 -175 -194 -215 -264 -275 -293 -315 -358 -380 -398 -409 -458 0
-14 -37 -51 -74 -97 -111 -136 -150 -175 -194 -215 -245 -263 -294 -315 -358 -379 -410 -428 -458 0
-14 -37 -51 -74 -97 -111 -136 -150 -175 -194 -215 -228 -263 -293 -316 -357 -380 -410 -445 -458 0
-14 -37 -51 -74 -97 -111 -136 -150 -175 -194 -215 -228 -245 -275 -332 -341 -398 -428 -445 -458 0
-14 -36 -54 -72 -96 -114 -134 -152 -172 -195 -231 -242 -264 -273 -334 -339 -400 -409 -431 -442 0
-14 -36 -54 -72 -96 -114 -134 -152 -172 -195 -231 -241 -274 -296 -334 -339 -377 -399 -432 -442 0
-14 -36 -54 -72 -96 -114 -134 -152 -172 -195 -231 -241 -273 -313 -333 -340 -360 -400 -432 -442 0
-14 -36 -54 -72 -96 -114 -134 -152 -172 -195 -230 -242 -274 -312 -334 -339 -361 -399 -431 -443 0
-14 -36 -54 -72 -96 -114 -134 -152 -172 -195 -230 -242 -273 -297 -333 -340 -376 -400 -431 -443 0
-14 -36 -54 -72 -96 -114 -134 -152 -172 -195 -230 -241 -265 -274 -333 -340 -399 -408 -432 -443 0
-14 -36 -54 -72 -96 -114 -134 -152 -172 -195 -215 -264 -296 -312 -334 -339 -361 -377 -409 -458 0
-14 -36 -54 -72 -96 -114 -134 -152 -172 -195 -215 -264 -273 -297 -313 -360 -376 -400 -409 -458 0
-14 -36 -54 -72 -96 -114 -134 -152 -172 -195 -215 -241 -265 -296 -313 -360 -377 -408 -432 -458 0
-14 -36 -54 -72 -96 -114 -134 -152 -172 -195 -215 -230 -265 -297 -312 -361 -376 -408 -443 -458 0
-14 -36 -54 -72 -96 -114 -134 -152 -172 -195 -215 -230 -241 -273 -334 -339 -400 -432 -443 -458 0
-14 -36 -54 -72 -96 -114 -134 -152 -172 -195 -214 -265 -297 -313 -333 -340 -360 -376 -408 -459 0
-14 -36 -54 -72 -96 -114 -134 -152 -172 -195 -214 -265 -274 -296 -312 -361 -377 -399 -408 -459 0
-14 -36 -54 -72 -96 -114 -134 -152 -172 -195 -214 -242 -264 -297 -312 -361 -376 -409 -431 -459 0
-14 -36 -54 -72 -96 -114 -134 -152 -172 -195 -214 -231 -264 -296 -313 -360 -377 -409 -442 -459 0
-14 -36 -54 -72 -96 -114 -134 -152 -172 -195 -214 -231 -242 -274 -333 -340 -399 -431 -442 -459 0
-14 -36 -53 -73 -96 -113 -135 -151 -173 -195 -231 -243 -263 -273 -334 -339 -400 -410 -430 -442 0
-14 -36 -53 -73 -96 -113 -135 -151 -173 -195 -231 -241 -275 -295 -334 -339 -378 -398 -432 -442 0
-14 -36 -53 -73 -96 -113 -135 -151 -173 -195 -231 -241 -273 -314 -332 -341 -359 -400 -432 -442 0
-14 -36 -53 -73 -96 -113 -135 -151 -173 -195 -229 -243 -275 -312 -334 -339 -361 -398 -430 -444 0
-14 -36 -53 -73 -96 -113 -135 -151 -173 -195 -229 -243 -273 -297 -332 -341 -376 -400 -430 -444 0
-14 -36 -53 -73 -96 -113 -135 -151 -173 -195 -229 -241 -265 -275 -332 -341 -398 -408 -432 -444 0
-14 -36 -53 -73 -96 -113 -135 -151 -173 -195 -216 -263 -295 -312 -334 -339 -361 -378 -410 -457 0
-14 -36 -53 -73 -96 -113 -135 -151 -173 -195 -216 -263 -273 -297 -314 -359 -376 -400 -410 -457 0
-14 -36 -53 -73 -96 -113 -135 -151 -173 -195 -216 -241 -265 -295 -314 -359 -378 -408 -432 -457 0
-14 -36 -53 -73 -96 -113 -135 -151 -173 -195 -216 -229 -265 -297 -312 -361 -376 -408 -444 -457 0
-14 -36 -53 -73 -96 -113 -135 -151 -173 -195 -216 -229 -241 -273 -334 -339 -400 -432 -444 -457 0
-14 -36 -53 -73 -96 -113 -135 -151 -173 -195 -214 -265 -297 -314 -332 -341 -359 -376 -408 -459 0
-14 -36 -53 -73 -96 -113 -135 -151 -173 -195 -214 -265 -275 -295 -312 -361 -378 -398 -408 -459 0
-14 -36 -53 -73 -96 -113 -135 -151 -173 -195 -214 -243 -263 -297 -312 -361 -376 -410 -430 -459 0
-14 -36 -53 -73 -96 -113 -135 -151 -173 -195 -214 -231 -263 -295 -314 -359 -378 -410 -442 -459 0
-14 -36 -53 -73 -96 -113 -135 -151 -173 -195 -214 -231 -243 -275 -332 -341 -398 -430 -442 -459 0
-14 -36 -52 -74 -96 -112 -136 -150 -174 -195 -230 -243 -263 -274 -333 -340 -399 -410 -430 -443 0
-14 -36 -52 -74 -96 -112 -136 -150 -174 -195 -230 -242 -275 -295 -333 -340 -378 -398 -431 -443 0
-14 -36 -52 -74 -96 -112 -136 -150 -174 -195 -230 -242 -274 -314 -332 -341 -359 -399 -431 -443 0
-14 -36 -52 -74 -96 -112 -136 -150 -174 -195 -229 -243 -275 -313 -333 -340 -360 -398 -430 -444 0
-14 -36 -52 -74 -96 -112 -136 -150 -174 -195 -229 -243 -274 -296 -332 -341 -377 -399 -430 -444 0
-14 -36 -52 -74 -96 -112 -136 -150 -174 -195 -229 -242 -264 -275 -332 -341 -398 -409 -431 -444 0
-14 -36 -52 -74 -96 -112 -136 -150 -174 -195 -216 -263 -295 -313 -333 -340 -360 -378 -410 -457 0
-14 -36 -52 -74 -96 -112 -136 -150 -174 -195 -216 -263 -274 -296 -314 -359 -377 -399 -410 -457 0
-14 -36 -52 -74 -96 -112 -136 -150 -174 -195 -216 -242 -264 -295 -314 -359 -378 -409 -431 -457 0
-14 -36 -52 -74 -96 -112 -136 -150 -174 -195 -216 -229 -264 -296 -313 -360 -377 -409 -444 -457 0
-14 -36 -52 -74 -96 -112 -136 -150 -174 -195 -216 -229 -242 -274 -333 -340 -399 -431 -444 -457 0
-14 -36 -52 -74 -96 -112 -136 -150 -174 -195 -215 -264 -296 -314 -332 -341 -359 -377 -409 -458 0
-14 -36 -52 -74 -96 -112 -136 -150 -174 -195 -215 -264 -275 -295 -313 -360 -378 -398 -409 -458 0
-14 -36 -52 -74 -96 -112 -136 -150 -174 -195 -215 -243 -263 -296 -313 -360 -377 -410 -430 -458 0
-14 -36 -52 -74 -96 -112 -136 -150 -174 -195 -215 -230 -263 -295 -314 -359 -378 -410 -443 -458 0
-14 -36 -52 -74 -96 -112 -136 -150 -174 -195 -215 -230 -243 -275 -332 -341 -398 -430 -443 -458 0
-14 -30 -77 -78 -85 -127 -128 -152 -153 -210 -231 -242 -245 -286 -311 -362 -387 -428 -431 -442 0
-14 -30 -77 -78 -85 -127 -128 -152 -153 -210 -231 -241 -287 -290 -311 -362 -383 -386 -432 -442 0
-14 -30 -77 -78 -85 -127 -128 -152 -153 -210 -231 -241 -286 -307 -310 -363 -366 -387 -432 -442 0
-14 -30 -77 -78 -85 -127 -128 -152 -153 -210 -230 -242 -287 -306 -311 -362 -367 -386 -431 -443 0
-14 -30 -77 -78 -85 -127 -128 -152 -153 -210 -230 -242 -286 -291 -310 -363 -382 -387 -431 -443 0
-14 -30 -77 -78 -85 -127 -128 -152 -153 -210 -230 -241 -246 -287 -310 -363 -386 -427 -432 -443 0
-14 -30 -77 -78 -85 -127 -128 -152 -153 -210 -227 -245 -290 -306 -311 -362 -367 -383 -428 -446 0
-14 -30 -77 -78 -85 -127 -128 -152 -153 -210 -227 -245 -286 -291 -307 -366 -382 -387 -428 -446 0
-14 -30 -77 -78 -85 -127 -128 -152 -153 -210 -227 -241 -246 -290 -307 -366 -383 -427 -432 -446 0
-14 -30 -77 -78 -85 -127 -128 -152 -153 -210 -227 -230 -246 -291 -306 -367 -382 -427 -443 -446 0
-14 -30 -77 -78 -85 -127 -128 -152 -153 -210 -227 -230 -241 -286 -311 -362 -387 -432 -443 -446 0
-14 -30 -77 -78 -85 -127 -128 -152 -153 -210 -226 -246 -291 -307 -310 -363 -366 -382 -427 -447 0
-14 -30 -77 -78 -85 -127 -128 -152 -153 -210 -226 -246 -287 -290 -306 -367 -383 -386 -427 -447 0
-14 -30 -77 -78 -85 -127 -128 -152 -153 -210 -226 -242 -245 -291 -306 -367 -382 -428 -431 -447 0
-14 -30 -77 -78 -85 -127 -128 -152 -153 -210 -226 -231 -245 -290 -307 -366 -383 -428 -442 -447 0
-14 -30 -77 -78 -85 -127 -128 -152 -153 -210 -226 -231 -242 -287 -310 -363 -386 -431 -442 -447 0
-14 -30 -76 -79 -85 -126 -129 -151 -154 -210 -231 -243 -244 -286 -311 -362 -387 -429 -430 -442 0
-14 -30 -76 -79 -85 -126 -129 -151 -154 -210 -231 -241 -288 -289 -311 -362 -384 -385 -432 -442 0
-14 -30 -76 -79 -85 -126 -129 -151 -154 -210 -231 -241 -286 -308 -309 -364 -365 -387 -432 -442 0
-14 -30 -76 -79 -85 -126 -129 -151 -154 -210 -229 -243 -288 -306 -311 -362 -367 -385 -430 -444 0
-14 -30 -76 -79 -85 -126 -129 -151 -154 -210 -229 -243 -286 -291 -309 -364 -382 -387 -430 -444 0
-14 -30 -76 -79 -85 -126 -129 -151 -154 -210 -229 -241 -246 -288 -309 -364 -385 -427 -432 -444 0
-14 -30 -76 -79 -85 -126 -129 -151 -154 -210 -228 -244 -289 -306 -311 -362 -367 -384 -429 -445 0
-14 -30 -76 -79 -85 -126 -129 -151 -154 -210 -228 -244 -286 -291 -308 -365 -382 -387 -429 -445 0
-14 -30 -76 -79 -85 -126 -129 -151 -154 -210 -228 -241 -246 -289 -308 -365 -384 -427 -432 -445 0
-14 -30 -76 -79 -85 -126 -129 -151 -154 -210 -228 -229 -246 -291 -306 -367 -382 -427 -444 -445 0
-14 -30 -76 -79 -85 -126 -129 -151 -154 -210 -228 -229 -241 -286 -311 -362 -387 -432 -444 -445 0
-14 -30 -76 -79 -85 -126 -129 -151 -154 -210 -226 -246 -291 -308 -309 -364 -365 -382 -427 -447 0
-14 -30 -76 -79 -85 -126 -129 -151 -154 -210 -226 -246 -288 -289 -306 -367 -384 -385 -427 -447 0
-14 -30 -76 -79 -85 -126 -129 -151 -154 -210 -226 -243 -244 -291 -306 -367 -382 -429 -430 -447 0
-14 -30 -76 -79 -85 -126 -129 -151 -154 -210 -226 -231 -244 -289 -308 -365 -384 -429 -442 -447 0
-14 -30 -76 -79 -85 -126 -129 -151 -154 -210 -226 -231 -243 -288 -309 -364 -385 -430 -442 -447 0
-14 -30 -75 -80 -85 -125 -130 -150 -155 -210 -230 -243 -244 -287 -310 -363 -386 -429 -430 -443 0
-14 -30 -75 -80 -85 -125 -130 -150 -155 -210 -230 -242 -288 -289 -310 -363 -384 -385 -431 -443 0
-14 -30 -75 -80 -85 -125 -130 -150 -155 -210 -230 -242 -287 -308 -309 -364 -365 -386 -431 -443 0
-14 -30 -75 -80 -85 -125 -130 -150 -155 -210 -229 -243 -288 -307 -310 -363 -366 -385 -430 -444 0
-14 -30 -75 -80 -85 -125 -130 -150 -155 -210 -229 -243 -287 -290 -309 -364 -383 -386 -430 -444 0
-14 -30 -75 -80 -85 -125 -130 -150 -155 -210 -229 -242 -245 -288 -309 -364 -385 -428 -431 -444 0
-14 -30 -75 -80 -85 -125 -130 -150 -155 -210 -228 -244 -289 -307 -310 -363 -366 -384 -429 -445 0
-14 -30 -75 -80 -85 -125 -130 -150 -155 -210 -228 -244 -287 -290 -308 -365 -383 -386 -429 -445 0
-14 -30 -75 -80 -85 -125 -130 -150 -155 -210 -228 -242 -245 -289 -308 -365 -384 -428 -431 -445 0
-14 -30 -75 -80 -85 -125 -130 -150 -155 -210 -228 -229 -245 -290 -307 -366 -383 -428 -444 -445 0
-14 -30 -75 -80 -85 -125 -130 -150 -155 -210 -228 -229 -242 -287 -310 -363 -386 -431 -444 -445 0
-14 -30 -75 -80 -85 -125 -130 -150 -155 -210 -227 -245 -290 -308 -309 -364 -365 -383 -428 -446 0
-14 -30 -75 -80 -85 -125 -130 -150 -155 -210 -227 -245 -288 -289 -307 -366 -384 -385 -428 -446 0
-14 -30 -75 -80 -85 -125 -130 -150 -155 -210 -227 -243 -244 -290 -307 -366 -383 -429 -430 -446 0
-14 -30 -75 -80 -85 -125 -130 -150 -155 -210 -227 -230 -244 -289 -308 -365 -384 -429 -443 -446 0
-14 -30 -75 -80 -85 -125 -130 -150 -155 -210 -227 -230 -243 -288 -309 -364 -385 -430 -443 -446 0
-14 -29 -71 -72 -86 -133 -134 -152 -153 -210 -231 -242 -245 -292 -317 -356 -381 -428 -431 -442 0
-14 -29 -71 -72 -86 -133 -134 -152 -153 -210 -231 -241 -293 -296 -317 -356 -377 -380 -432 -442 0
-14 -29 -71 -72 -86 -133 -134 -152 -153 -210 -231 -241 -292 -313 -316 -357 -360 -381 -432 -442 0
-14 -29 -71 -72 -86 -133 -134 -152 -153 -210 -230 -242 -293 -312 -317 -356 -361 -380 -431 -443 0
-14 -29 -71 -72 -86 -133 -134 -152 -153 -210 -230 -242 -292 -297 -316 -357 -376 -381 -431 -443 0
-14 -29 -71 -72 -86 -133 -134 -152 -153 -210 -230 -241 -246 -293 -316 -357 -380 -427 -432 -443 0
-14 -29 -71 -72 -86 -133 -134 -152 -153 -210 -227 -245 -296 -312 -317 -356 -361 -377 -428 -446 0
-14 -29 -71 -72 -86 -133 -134 -152 -153 -210 -227 -245 -292 -297 -313 -360 -376 -381 -428 -446 0
-14 -29 -71 -72 -86 -133 -134 -152 -153 -210 -227 -241 -246 -296 -313 -360 -377 -427 -432 -446 0
-14 -29 -71 -72 -86 -133 -134 -152 -153 -210 -227 -230 -246 -297 -312 -361 -376 -427 -443 -446 0
-14 -29 -71 -72 -86 -133 -134 -152 -153 -210 -227 -230 -241 -292 -317 -356 -381 -432 -443 -446 0
-14 -29 -71 -72 -86 -133 -134 -152 -153 -210 -226 -246 -297 -313 -316 -357 -360 -376 -427 -447 0
-14 -29 -71 -72 -86 -133 -134 -152 -153 -210 -226 -246 -293 -296 -312 -361 -377 -380 -427 -447 0
-14 -29 -71 -72 -86 -133 -134 -152 -153 -210 -226 -242 -245 -297 -312 -361 -376 -428 -431 -447 0
-14 -29 -71 -72 -86 -133 -134 -152 -153 -210 -226 -231 -245 -296 -313 -360 -377 -428 -442 -447 0
-14 -29 -71 -72 -86 -133 -134 -152 -153 -210 -226 -231 -242 -293 -316 -357 -380 -431 -442 -447 0
-14 -29 -70 -73 -86 -132 -135 -151 -154 -210 -231 -243 -244 -292 -317 -356 -381 -429 -430 -442 0
-14 -29 -70 -73 -86 -132 -135 -151 -154 -210 -231 -241 -294 -295 -317 -356 -378 -379 -432 -442 0
-14 -29 -70 -73 -86 -132 -135 -151 -154 -210 -231 -241 -292 -314 -315 -358 -359 -381 -432 -442 0
-14 -29 -70 -73 -86 -132 -135 -151 -154 -210 -229 -243 -294 -312 -317 -356 -361 -379 -430 -444 0
-14 -29 -70 -73 -86 -132 -135 -151 -154 -210 -229 -243 -292 -297 -315 -358 -376 -381 -430 -444 0
-14 -29 -70 -73 -86 -132 -135 -151 -154 -210 -229 -241 -246 -294 -315 -358 -379 -427 -432 -444 0
-14 -29 -70 -73 -86 -132 -135 -151 -154 -210 -228 -244 -295 -312 -317 -356 -361 -378 -429 -445 0
-14 -29 -70 -73 -86 -132 -135 -151 -154 -210 -228 -244 -292 -297 -314 -359 -376 -381 -429 -445 0
-14 -29 -70 -73 -86 -132 -135 -151 -154 -210 -228 -241 -246 -295 -314 -359 -378 -427 -432 -445 0
-14 -29 -70 -73 -86 -132 -135 -151 -154 -210 -228 -229 -246 -297 -312 -361 -376 -427 -444 -445 0
-14 -29 -70 -73 -86 -132 -135 -151 -154 -210 -228 -229 -241 -292 -317 -356 -381 -432 -444 -445 0
-14 -29 -70 -73 -86 -132 -135 -151 -154 -210 -226 -246 -297 -314 -315 -358 -359 -376 -427 -447 0
-14 -29 -70 -73 -86 -132 -135 -151 -154 -210 -226 -246 -294 -295 -312 -361 -378 -379 -427 -447 0
-14 -29 -70 -73 -86 -132 -135 -151 -154 -210 -226 -243 -244 -297 -312 -361 -376 -429 -430 -447 0
-14 -29 -70 -73 -86 -132 -135 -151 -154 -210 -226 -231 -244 -295 -314 -359 -378 -429 -442 -447 0
-14 -29 -70 -73 -86 -132 -135 -151 -154 -210 -226 -231 -243 -294 -315 -358 -379 -430 -442 -447 0
-14 -29 -69 -74 -86 -131 -136 -150 -155 -210 -230 -243 -244 -293 -316 -357 -380 -429 -430 -443 0
-14 -29 -69 -74 -86 -131 -136 -150 -155 -210 -230 -242 -294 -295 -316 -357 -378 -379 -431 -443 0
-14 -29 -69 -74 -86 -131 -136 -150 -155 -210 -230 -242 -293 -314 -315 -358 -359 -380 -431 -443 0
-14 -29 -69 -74 -86 -131 -136 -150 -155 -210 -229 -243 -294 -313 -316 -357 -360 -379 -430 -444 0
-14 -29 -69 -74 -86 -131 -136 -150 -155 -210 -229 -243 -293 -296 -315 -358 -377 -380 -430 -444 0
-14 -29 -69 -74 -86 -131 -136 -150 -155 -210 -229 -242 -245 -294 -315 -358 -379 -428 -431 -444 0
-14 -29 -69 -74 -86 -131 -136 -150 -155 -210 -228 -244 -295 -313 -316 -357 -360 -378 -429 -445 0
-14 -29 -69 -74 -86 -131 -136 -150 -155 -210 -228 -244 -293 -296 -314 -359 -377 -380 -429 -445 0
-14 -29 -69 -74 -86 -131 -136 -150 -155 -210 -228 -242 -245 -295 -314 -359 -378 -428 -431 -445 0
-14 -29 -69 -74 -86 -131 -136 -150 -155 -210 -228 -229 -245 -296 -313 -360 -377 -428 -444 -445 0
-14 -29 -69 -74 -86 -131 -136 -150 -155 -210 -228 -229 -242 -293 -316 -357 -380 -431 -444 -445 0
-14 -29 -69 -74 -86 -131 -136 -150 -155 -210 -227 -245 -296 -314 -315 -358 -359 -377 -428 -446 0
-14 -29 -69 -74 -86 -131 -136 -150 -155 -210 -227 -245 -294 -295 -313 -360 -378 -379 -428 -446 0
-14 -29 -69 -74 -86 -131 -136 -150 -155 -210 -227 -243 -244 -296 -313 -360 -377 -429 -430 -446 0
-14 -29 -69 -74 -86 -131 -136 -150 -155 -210 -227 -230 -244 -295 -314 -359 -378 -429 -443 -446 0
-14 -29 -69 -74 -86 -131 -136 -150 -155 -210 -227 -230 -243 -294 -315 -358 -379 -430 -443 -446 0
-13 -49 -73 -77 -89 -108 -111 -163 -167 -196 -226 -252 -260 -267 -318 -355 -406 -413 -421 -447 0
-13 -49 -73 -77 -89 -108 -111 -163 -167 -196 -226 -249 -268 -273 -318 -355 -400 -405 -424 -447 0
-13 -49 -73 -77 -89 -108 -111 -163 -167 -196 -226 -249 -267 -307 -315 -358 -366 -406 -424 -447 0
-13 -49 -73 -77 -89 -108 -111 -163 -167 -196 -223 -252 -268 -304 -318 -355 -369 -405 -421 -450 0
-13 -49 -73 -77 -89 -108 -111 -163 -167 -196 -223 -252 -267 -276 -315 -358 -397 -406 -421 -450 0
-13 -49 -73 -77 -89 -108 -111 -163 -167 -196 -223 -249 -263 -268 -315 -358 -405 -410 -424 -450 0
-13 -49 -73 -77 -89 -108 -111 -163 -167 -196 -218 -260 -273 -304 -318 -355 -369 -400 -413 -455 0
-13 -49 -73 -77 -89 -108 -111 -163 -167 -196 -218 -260 -267 -276 -307 -366 -397 -406 -413 -455 0
-13 -49 -73 -77 -89 -108 -111 -163 -167 -196 -218 -249 -263 -273 -307 -366 -400 -410 -424 -455 0
-13 -49 -73 -77 -89 -108 -111 -163 -167 -196 -218 -223 -263 -276 -304 -369 -397 -410 -450 -455 0
-13 -49 -73 -77 -89 -108 -111 -163 -167 -196 -218 -223 -249 -267 -318 -355 -406 -424 -450 -455 0
-13 -49 -73 -77 -89 -108 -111 -163 -167 -196 -217 -263 -276 -307 -315 -358 -366 -397 -410 -456 0
-13 -49 -73 -77 -89 -108 -111 -163 -167 -196 -217 -263 -268 -273 -304 -369 -400 -405 -410 -456 0
-13 -49 -73 -77 -89 -108 -111 -163 -167 -196 -217 -252 -260 -276 -304 -369 -397 -413 -421 -456 0
-13 -49 -73 -77 -89 -108 -111 -163 -167 -196 -217 -226 -260 -273 -307 -366 -400 -413 -447 -456 0
-13 -49 -73 -77 -89 -108 -111 -163 -167 -196 -217 -226 -252 -268 -315 -358 -405 -421 -447 -456 0
-13 -49 -71 -79 -89 -107 -112 -161 -169 -196 -226 -254 -258 -267 -318 -355 -406 -415 -419 -447 0
-13 -49 -71 -79 -89 -107 -112 -161 -169 -196 -226 -249 -269 -272 -318 -355 -401 -404 -424 -447 0
-13 -49 -71 -79 -89 -107 -112 -161 -169 -196 -226 -249 -267 -309 -313 -360 -364 -406 -424 -447 0
-13 -49 -71 -79 -89 -107 -112 -161 -169 -196 -222 -254 -269 -304 -318 -355 -369 -404 -419 -451 0
-13 -49 -71 -79 -89 -107 -112 -161 -169 -196 -222 -254 -267 -276 -313 -360 -397 -406 -419 -451 0
-13 -49 -71 -79 -89 -107 -112 -161 -169 -196 -222 -249 -263 -269 -313 -360 -404 -410 -424 -451 0
-13 -49 -71 -79 -89 -107 -112 -161 -169 -196 -219 -258 -272 -304 -318 -355 -369 -401 -415 -454 0
-13 -49 -71 -79 -89 -107 -112 -161 -169 -196 -219 -258 -267 -276 -309 -364 -397 -406 -415 -454 0
-13 -49 -71 -79 -89 -107 -112 -161 -169 -196 -219 -249 -263 -272 -309 -364 -401 -410 -424 -454 0
-13 -49 -71 -79 -89 -107 -112 -161 -169 -196 -219 -222 -263 -276 -304 -369 -397 -410 -451 -454 0
-13 -49 -71 -79 -89 -107 -112 -161 -169 -196 -219 -222 -249 -267 -318 -355 -406 -424 -451 -454 0
-13 -49 -71 -79 -89 -107 -112 -161 -169 -196 -217 -263 -276 -309 -313 -360 -364 -397 -410 -456 0
-13 -49 -71 -79 -89 -107 -112 -161 -169 -196 -217 -263 -269 -272 -304 -369 -401 -404 -410 -456 0
-13 -49 -71 -79 -89 -107 -112 -161 -169 -196 -217 -254 -258 -276 -304 -369 -397 -415 -419 -456 0
-13 -49 -71 -79 -89 -107 -112 -161 -169 -196 -217 -226 -258 -272 -309 -364 -401 -415 -447 -456 0
-13 -49 -71 -79 -89 -107 -112 -161 -169 -196 -217 -226 -254 -269 -313 -360 -404 -419 -447 -456 0
-13 -49 -68 -82 -89 -106 -115 -158 -172 -196 -223 -254 -258 -268 -315 -358 -405 -415 -419 -450 0
-13 -49 -68 -82 -89 -106 -115 -158 -172 -196 -223 -252 -269 -272 -315 -358 -401 -404 -421 -450 0
-13 -49 -68 -82 -89 -106 -115 -158 -172 -196 -223 -252 -268 -309 -313 -360 -364 -405 -421 -450 0
-13 -49 -68 -82 -89 -106 -115 -158 -172 -196 -222 -254 -269 -307 -315 -358 -366 -404 -419 -451 0
-13 -49 -68 -82 -89 -106 -115 -158 -172 -196 -222 -254 -268 -273 -313 -360 -400 -405 -419 -451 0
-13 -49 -68 -82 -89 -106 -115 -158 -172 -196 -222 -252 -260 -269 -313 -360 -404 -413 -421 -451 0
-13 -49 -68 -82 -89 -106 -115 -158 -172 -196 -219 -258 -272 -307 -315 -358 -366 -401 -415 -454 0
-13 -49 -68 -82 -89 -106 -115 -158 -172 -196 -219 -258 -268 -273 -309 -364 -400 -405 -415 -454 0
-13 -49 -68 -82 -89 -106 -115 -158 -172 -196 -219 -252 -260 -272 -309 -364 -401 -413 -421 -454 0
-13 -49 -68 -82 -89 -106 -115 -158 -172 -196 -219 -222 -260 -273 -307 -366 -400 -413 -451 -454 0
-13 -49 -68 -82 -89 -106 -115 -158 -172 -196 -219 -222 -252 -268 -315 -358 -405 -421 -451 -454 0
-13 -49 -68 -82 -89 -106 -115 -158 -172 -196 -218 -260 -273 -309 -313 -360 -364 -400 -413 -455 0
-13 -49 -68 -82 -89 -106 -115 -158 -172 -196 -218 -260 -269 -272 -307 -366 -401 -404 -413 -455 0
-13 -49 -68 -82 -89 -106 -115 -158 -172 -196 -218 -254 -258 -273 -307 -366 -400 -415 -419 -455 0
-13 -49 -68 -82 -89 -106 -115 -158 -172 -196 -218 -223 -258 -272 -309 -364 -401 -415 -450 -455 0
-13 -49 -68 -82 -89 -106 -115 -158 -172 -196 -218 -223 -254 -269 -313 -360 -404 -419 -450 -455 0
-13 -48 -68 -83 -88 -106 -116 -157 -172 -197 -222 -254 -268 -274 -312 -361 -399 -405 -419 -451 0
-13 -48 -68 -83 -88 -106 -116 -157 -172 -197 -220 -222 -260 -274 -306 -367 -399 -413 -451 -453 0
-13 -48 -68 -83 -88 -106 -116 -157 -172 -197 -218 -260 -270 -272 -306 -367 -401 -403 -413 -455 0
-13 -48 -68 -83 -88 -106 -116 -157 -172 -197 -218 -224 -254 -270 -312 -361 -403 -419 -449 -455 0
-13 -46 -68 -84 -87 -106 -118 -156 -172 -199 -223 -252 -269 -274 -312 -361 -399 -404 -421 -450 0
-13 -46 -68 -84 -87 -106 -118 -156 -172 -199 -220 -223 -258 -274 -306 -367 -399 -415 -450 -453 0
-13 -46 -68 -84 -87 -106 -118 -156 -172 -199 -219 -258 -270 -273 -306 -367 -400 -403 -415 -454 0
-13 -46 -68 -84 -87 -106 -118 -156 -172 -199 -219 -224 -252 -270 -312 -361 -403 -421 -449 -454 0
-13 -43 -74 -82 -86 -109 -115 -158 -166 -202 -219 -258 -268 -279 -303 -370 -394 -405 -415 -454 0
-13 -43 -74 -82 -86 -109 -115 -158 -166 -202 -219 -227 -260 -279 -302 -371 -394 -413 -446 -454 0
-13 -43 -74 -82 -86 -109 -115 -158 -166 -202 -218 -260 -269 -277 -302 -371 -396 -404 -413 -455 0
-13 -43 -74 -82 -86 -109 -115 -158 -166 -202 -218 -229 -258 -277 -303 -370 -396 -415 -444 -455 0
-13 -39 -80 -82 -85 -113 -115 -158 -160 -206 -223 -252 -272 -279 -303 -370 -394 -401 -421 -450 0
-13 -39 -80 -82 -85 -113 -115 -158 -160 -206 -223 -227 -254 -279 -302 -371 -394 -419 -446 -450 0
-13 -39 -80 -82 -85 -113 -115 -158 -160 -206 -222 -254 -273 -277 -302 -371 -396 -400 -419 -451 0
-13 -39 -80 -82 -85 -113 -115 -158 -160 -206 -222 -229 -252 -277 -303 -370 -396 -421 -444 -451 0
-13 -33 -52 -55 -105 -129 -133 -163 -167 -196 -226 -252 -260 -285 -336 -337 -388 -413 -421 -447 0
-13 -33 -52 -55 -105 -129 -133 -163 -167 -196 -226 -249 -288 -296 -336 -337 -377 -385 -424 -447 0
-13 -33 -52 -55 -105 -129 -133 -163 -167 -196 -226 -249 -285 -330 -335 -338 -343 -388 -424 -447 0
-13 -33 -52 -55 -105 -129 -133 -163 -167 -196 -223 -252 -288 -327 -336 -337 -346 -385 -421 -450 0
-13 -33 -52 -55 -105 -129 -133 -163 -167 -196 -223 -252 -285 -299 -335 -338 -374 -388 -421 -450 0
-13 -33 -52 -55 -105 -129 -133 -163 -167 -196 -223 -249 -263 -288 -335 -338 -385 -410 -424 -450 0
-13 -33 -52 -55 -105 -129 -133 -163 -167 -196 -218 -260 -296 -327 -336 -337 -346 -377 -413 -455 0
-13 -33 -52 -55 -105 -129 -133 -163 -167 -196 -218 -260 -285 -299 -330 -343 -374 -388 -413 -455 0
-13 -33 -52 -55 -105 -129 -133 -163 -167 -196 -218 -249 -263 -296 -330 -343 -377 -410 -424 -455 0
-13 -33 -52 -55 -105 -129 -133 -163 -167 -196 -218 -223 -263 -299 -327 -346 -374 -410 -450 -455 0
-13 -33 -52 -55 -105 -129 -133 -163 -167 -196 -218 -223 -249 -285 -336 -337 -388 -424 -450 -455 0
-13 -33 -52 -55 -105 -129 -133 -163 -167 -196 -217 -263 -299 -330 -335 -338 -343 -374 -410 -456 0
-13 -33 -52 -55 -105 -129 -133 -163 -167 -196 -217 -263 -288 -296 -327 -346 -377 -385 -410 -456 0
-13 -33 -52 -55 -105 -129 -133 -163 -167 -196 -217 -252 -260 -299 -327 -346 -374 -413 -421 -456 0
-13 -33 -52 -55 -105 -129 -133 -163 -167 -196 -217 -226 -260 -296 -330 -343 -377 -413 -447 -456 0
-13 -33 -52 -55 -105 -129 -133 -163 -167 -196 -217 -226 -252 -288 -335 -338 -385 -421 -447 -456 0
-13 -33 -51 -56 -105 -127 -135 -161 -169 -196 -226 -254 -258 -285 -336 -337 -388 -415 -419 -447 0
-13 -33 -51 -56 -105 -127 -135 -161 -169 -196 -226 -249 -290 -294 -336 -337 -379 -383 -424 -447 0
-13 -33 -51 -56 -105 -127 -135 -161 -169 -196 -226 -249 -285 -331 -334 -339 -342 -388 -424 -447 0
-13 -33 -51 -56 -105 -127 -135 -161 -169 -196 -222 -254 -290 -327 -336 -337 -346 -383 -419 -451 0
-13 -33 -51 -56 -105 -127 -135 -161 -169 -196 -222 -254 -285 -299 -334 -339 -374 -388 -419 -451 0
-13 -33 -51 -56 -105 -127 -135 -161 -169 -196 -222 -249 -263 -290 -334 -339 -383 -410 -424 -451 0
-13 -33 -51 -56 -105 -127 -135 -161 -169 -196 -219 -258 -294 -327 -336 -337 -346 -379 -415 -454 0
-13 -33 -51 -56 -105 -127 -135 -161 -169 -196 -219 -258 -285 -299 -331 -342 -374 -388 -415 -454 0
-13 -33 -51 -56 -105 -127 -135 -161 -169 -196 -219 -249 -263 -294 -331 -342 -379 -410 -424 -454 0
-13 -33 -51 -56 -105 -127 -135 -161 -169 -196 -219 -222 -263 -299 -327 -346 -374 -410 -451 -454 0
-13 -33 -51 -56 -105 -127 -135 -161 -169 -196 -219 -222 -249 -285 -336 -337 -388 -424 -451 -454 0
-13 -33 -51 -56 -105 -127 -135 -161 -169 -196 -217 -263 -299 -331 -334 -339 -342 -374 -410 -456 0
-13 -33 -51 -56 -105 -127 -135 -161 -169 -196 -217 -263 -290 -294 -327 -346 -379 -383 -410 -456 0
-13 -33 -51 -56 -105 -127 -135 -161 -169 -196 -217 -254 -258 -299 -327 -346 -374 -415 -419 -456 0
-13 -33 -51 -56 -105 -127 -135 -161 -169 -196 -217 -226 -258 -294 -331 -342 -379 -415 -447 -456 0
-13 -33 -51 -56 -105 -127 -135 -161 -169 -196 -217 -226 -254 -290 -334 -339 -383 -419 -447 -456 0
-13 -33 -50 -59 -105 -124 -138 -158 -172 -196 -223 -254 -258 -288 -335 -338 -385 -415 -419 -450 0
-13 -33 -50 -59 -105 -124 -138 -158 -172 -196 -223 -252 -290 -294 -335 -338 -379 -383 -421 -450 0
-13 -33 -50 -59 -105 -124 -138 -158 -172 -196 -223 -252 -288 -331 -334 -339 -342 -385 -421 -450 0
-13 -33 -50 -59 -105 -124 -138 -158 -172 -196 -222 -254 -290 -330 -335 -338 -343 -383 -419 -451 0
-13 -33 -50 -59 -105 -124 -138 -158 -172 -196 -222 -254 -288 -296 -334 -339 -377 -385 -419 -451 0
-13 -33 -50 -59 -105 -124 -138 -158 -172 -196 -222 -252 -260 -290 -334 -339 -383 -413 -421 -451 0
-13 -33 -50 -59 -105 -124 -138 -158 -172 -196 -219 -258 -294 -330 -335 -338 -343 -379 -415 -454 0
-13 -33 -50 -59 -105 -124 -138 -158 -172 -196 -219 -258 -288 -296 -331 -342 -377 -385 -415 -454 0
-13 -33 -50 -59 -105 -124 -138 -158 -172 -196 -219 -252 -260 -294 -331 -342 -379 -413 -421 -454 0
-13 -33 -50 -59 -105 -124 -138 -158 -172 -196 -219 -222 -260 -296 -330 -343 -377 -413 -451 -454 0
-13 -33 -50 -59 -105 -124 -138 -158 -172 -196 -219 -222 -252 -288 -335 -338 -385 -421 -451 -454 0
-13 -33 -50 -59 -105 -124 -138 -158 -172 -196 -218 -260 -296 -331 -334 -339 -342 -377 -413 -455 0
-13 -33 -50 -59 -105 -124 -138 -158 -172 -196 -218 -260 -290 -294 -330 -343 -379 -383 -413 -455 0
-13 -33 -50 -59 -105 -124 -138 -158 -172 -196 -218 -254 -258 -296 -330 -343 -377 -415 -419 -455 0
-13 -33 -50 -59 -105 -124 -138 -158 -172 -196 -218 -223 -258 -294 -331 -342 -379 -415 -450 -455 0
-13 -33 -50 -59 -105 -124 -138 -158 -172 -196 -218 -223 -254 -290 -334 -339 -383 -419 -450 -455 0
-13 -32 -50 -60 -104 -124 -139 -157 -172 -197 -222 -254 -291 -329 -335 -338 -344 -382 -419 -451 0
-13 -32 -50 -60 -104 -124 -139 -157 -172 -197 -220 -222 -260 -297 -329 -344 -376 -413 -451 -453 0
-13 -32 -50 -60 -104 -124 -139 -157 -172 -197 -218 -260 -297 -331 -333 -340 -342 -376 -413 -455 0
-13 -32 -50 -60 -104 -124 -139 -157 -172 -197 -218 -224 -254 -291 -333 -340 -382 -419 -449 -455 0
-13 -31 -50 -62 -102 -124 -140 -156 -172 -199 -223 -252 -291 -329 -334 -339 -344 -382 -421 -450 0
-13 -31 -50 -62 -102 -124 -140 -156 -172 -199 -220 -223 -258 -297 -329 -344 -376 -415 -450 -453 0
-13 -31 -50 -62 -102 -124 -140 -156 -172 -199 -219 -258 -297 -330 -333 -340 -343 -376 -415 -454 0
-13 -31 -50 -62 -102 -124 -140 -156 -172 -199 -219 -224 -252 -291 -333 -340 -382 -421 -449 -454 0
-13 -30 -53 -59 -99 -130 -138 -158 -166 -202 -219 -258 -300 -324 -335 -338 -349 -373 -415 -454 0
-13 -30 -53 -59 -99 -130 -138 -158 -166 -202 -219 -227 -260 -301 -324 -349 -372 -413 -446 -454 0
-13 -30 -53 -59 -99 -130 -138 -158 -166 -202 -218 -260 -301 -326 -334 -339 -347 -372 -413 -455 0
-13 -30 -53 -59 -99 -130 -138 -158 -166 -202 -218 -229 -258 -300 -326 -347 -373 -415 -444 -455 0
-13 -29 -57 -59 -95 -136 -138 -158 -160 -206 -223 -252 -300 -324 -331 -342 -349 -373 -421 -450 0
-13 -29 -57 -59 -95 -136 -138 -158 -160 -206 -223 -227 -254 -301 -324 -349 -372 -419 -446 -450 0
-13 -29 -57 -59 -95 -136 -138 -158 -160 -206 -222 -254 -301 -326 -330 -343 -347 -372 -419 -451 0
-13 -29 -57 -59 -95 -136 -138 -158 -160 -206 -222 -229 -252 -300 -326 -347 -373 -421 -444 -451 0
-12 -49 -72 -76 -90 -108 -111 -164 -168 -196 -226 -253 -261 -267 -319 -354 -406 -412 -420 -447 0
-12 -49 -72 -76 -90 -108 -111 -164 -168 -196 -226 -250 -268 -273 -319 -354 -400 -405 -423 -447 0
-12 -49 -72 -76 -90 -108 -111 -164 -168 -196 -226 -250 -267 -308 -316 -357 -365 -406 -423 -447 0
-12 -49 -72 -76 -90 -108 -111 -164 -168 -196 -223 -253 -268 -305 -319 -354 -368 -405 -420 -450 0
-12 -49 -72 -76 -90 -108 -111 -164 -168 -196 -223 -253 -267 -276 -316 -357 -397 -406 -420 -450 0
-12 -49 -72 -76 -90 -108 -111 -164 -168 -196 -223 -250 -264 -268 -316 -357 -405 -409 -423 -450 0
-12 -49 -72 -76 -90 -108 -111 -164 -168 -196 -218 -261 -273 -305 -319 -354 -368 -400 -412 -455 0
-12 -49 -72 -76 -90 -108 -111 -164 -168 -196 -218 -261 -267 -276 -308 -365 -397 -406 -412 -455 0
-12 -49 -72 -76 -90 -108 -111 -164 -168 -196 -218 -250 -264 -273 -308 -365 -400 -409 -423 -455 0
-12 -49 -72 -76 -90 -108 -111 -164 -168 -196 -218 -223 -264 -276 -305 -368 -397 -409 -450 -455 0
-12 -49 -72 -76 -90 -108 -111 -164 -168 -196 -218 -223 -250 -267 -319 -354 -406 -423 -450 -455 0
-12 -49 -72 -76 -90 -108 -111 -164 -168 -196 -217 -264 -276 -308 -316 -357 -365 -397 -409 -456 0
-12 -49 -72 -76 -90 -108 -111 -164 -168 -196 -217 -264 -268 -273 -305 -368 -400 -405 -409 -456 0
-12 -49 -72 -76 -90 -108 -111 -164 -168 -196 -217 -253 -261 -276 -305 -368 -397 -412 -420 -456 0
-12 -49 -72 -76 -90 -108 -111 -164 -168 -196 -217 -226 -261 -273 -308 -365 -400 -412 -447 -456 0
-12 -49 -72 -76 -90 -108 -111 -164 -168 -196 -217 -226 -253 -268 -316 -357 -405 -420 -447 -456 0
-12 -49 -70 -78 -90 -107 -112 -162 -170 -196 -226 -255 -259 -267 -319 -354 -406 -414 -418 -447 0
-12 -49 -70 -78 -90 -107 -112 -162 -170 -196 -226 -250 -269 -272 -319 -354 -401 -404 -423 -447 0
-12 -49 -70 -78 -90 -107 -112 -162 -170 -196 -226 -250 -267 -310 -314 -359 -363 -406 -423 -447 0
-12 -49 -70 -78 -90 -107 -112 -162 -170 -196 -222 -255 -269 -305 -319 -354 -368 -404 -418 -451 0
-12 -49 -70 -78 -90 -107 -112 -162 -170 -196 -222 -255 -267 -276 -314 -359 -397 -406 -418 -451 0
-12 -49 -70 -78 -90 -107 -112 -162 -170 -196 -222 -250 -264 -269 -314 -359 -404 -409 -423 -451 0
-12 -49 -70 -78 -90 -107 -112 -162 -170 -196 -219 -259 -272 -305 -319 -354 -368 -401 -414 -454 0
-12 -49 -70 -78 -90 -107 -112 -162 -170 -196 -219 -259 -267 -276 -310 -363 -397 -406 -414 -454 0
-12 -49 -70 -78 -90 -107 -112 -162 -170 -196 -219 -250 -264 -272 -310 -363 -401 -409 -423 -454 0
-12 -49 -70 -78 -90 -107 -112 -162 -170 -196 -219 -222 -264 -276 -305 -368 -397 -409 -451 -454 0
-12 -49 -70 -78 -90 -107 -112 -162 -170 -196 -219 -222 -250 -267 -319 -354 -406 -423 -451 -454 0
-12 -49 -70 -78 -90 -107 -112 -162 -170 -196 -217 -264 -276 -310 -314 -359 -363 -397 -409 -456 0
-12 -49 -70 -78 -90 -107 -112 -162 -170 -196 -217 -264 -269 -272 -305 -368 -401 -404 -409 -456 0
-12 -49 -70 -78 -90 -107 -112 -162 -170 -196 -217 -255 -259 -276 -305 -368 -397 -414 -418 -456 0
-12 -49 -70 -78 -90 -107 -112 -162 -170 -196 -217 -226 -259 -272 -310 -363 -401 -414 -447 -456 0
-12 -49 -70 -78 -90 -107 -112 -162 -170 -196 -217 -226 -255 -269 -314 -359 -404 -418 -447 -456 0
-12 -49 -67 -81 -90 -106 -115 -159 -173 -196 -223 -255 -259 -268 -316 -357 -405 -414 -418 -450 0
-12 -49 -67 -81 -90 -106 -115 -159 -173 -196 -223 -253 -269 -272 -316 -357 -401 -404 -420 -450 0
-12 -49 -67 -81 -90 -106 -115 -159 -173 -196 -223 -253 -268 -310 -314 -359 -363 -405 -420 -450 0
-12 -49 -67 -81 -90 -106 -115 -159 -173 -196 -222 -255 -269 -308 -316 -357 -365 -404 -418 -451 0
-12 -49 -67 -81 -90 -106 -115 -159 -173 -196 -222 -255 -268 -273 -314 -359 -400 -405 -418 -451 0
-12 -49 -67 -81 -90 -106 -115 -159 -173 -196 -222 -253 -261 -269 -314 -359 -404 -412 -420 -451 0
-12 -49 -67 -81 -90 -106 -115 -159 -173 -196 -219 -259 -272 -308 -316 -357 -365 -401 -414 -454 0
-12 -49 -67 -81 -90 -106 -115 -159 -173 -196 -219 -259 -268 -273 -310 -363 -400 -405 -414 -454 0
-12 -49 -67 -81 -90 -106 -115 -159 -173 -196 -219 -253 -261 -272 -310 -363 -401 -412 -420 -454 0
-12 -49 -67 -81 -90 -106 -115 -159 -173 -196 -219 -222 -261 -273 -308 -365 -400 -412 -451 -454 0
-12 -49 -67 -81 -90 -106 -115 -159 -173 -196 -219 -222 -253 -268 -316 -357 -405 -420 -451 -454 0
-12 -49 -67 -81 -90 -106 -115 -159 -173 -196 -218 -261 -273 -310 -314 -359 -363 -400 -412 -455 0
-12 -49 -67 -81 -90 -106 -115 -159 -173 -196 -218 -261 -269 -272 -308 -365 -401 -404 -412 -455 0
-12 -49 -67 -81 -90 -106 -115 -159 -173 -196 -218 -255 -259 -273 -308 -365 -400 -414 -418 -455 0
-12 -49 -67 -81 -90 -106 -115 -159 -173 -196 -218 -223 -259 -272 -310 -363 -401 -414 -450 -455 0
-12 -49 -67 -81 -90 -106 -115 -159 -173 -196 -218 -223 -255 -269 -314 -359 -404 -418 -450 -455 0
-12 -47 -67 -83 -88 -106 -117 -157 -173 -198 -222 -255 -268 -275 -312 -361 -398 -405 -418 -451 0
-12 -47 -67 -83 -88 -106 -117 -157 -173 -198 -221 -222 -261 -275 -306 -367 -398 -412 -451 -452 0
-12 -47 -67 -83 -88 -106 -117 -157 -173 -198 -218 -261 -271 -272 -306 -367 -401 -402 -412 -455 0
-12 -47 -67 -83 -88 -106 -117 -157 -173 -198 -218 -225 -255 -271 -312 -361 -402 -418 -448 -455 0
-12 -45 -67 -84 -87 -106 -119 -156 -173 -200 -223 -253 -269 -275 -312 -361 -398 -404 -420 -450 0
-12 -45 -67 -84 -87 -106 -119 -156 -173 -200 -221 -223 -259 -275 -306 -367 -398 -414 -450 -452 0
-12 -45 -67 -84 -87 -106 -119 -156 -173 -200 -219 -259 -271 -273 -306 -367 -400 -402 -414 -454 0
-12 -45 -67 -84 -87 -106 -119 -156 -173 -200 -219 -225 -253 -271 -312 -361 -402 -420 -448 -454 0
-12 -42 -74 -81 -86 -110 -115 -159 -166 -203 -219 -259 -268 -280 -303 -370 -393 -405 -414 -454 0
-12 -42 -74 -81 -86 -110 -115 -159 -166 -203 -219 -228 -261 -280 -302 -371 -393 -412 -445 -454 0
-12 -42 -74 -81 -86 -110 -115 -159 -166 -203 -218 -261 -269 -278 -302 -371 -395 -404 -412 -455 0
-12 -42 -74 -81 -86 -110 -115 -159 -166 -203 -218 -230 -259 -278 -303 -370 -395 -414 -443 -455 0
-12 -38 -80 -81 -85 -114 -115 -159 -160 -207 -223 -253 -272 -280 -303 -370 -393 -401 -420 -450 0
-12 -38 -80 -81 -85 -114 -115 -159 -160 -207 -223 -228 -255 -280 -302 -371 -393 -418 -445 -450 0
-12 -38 -80 -81 -85 -114 -115 -159 -160 -207 -222 -255 -273 -278 -302 -371 -395 -400 -418 -451 0
-12 -38 -80 -81 -85 -114 -115 -159 -160 -207 -222 -230 -253 -278 -303 -370 -395 -420 -443 -451 0
-12 -34 -52 -55 -105 -128 -132 -164 -168 -196 -226 -253 -261 -284 -336 -337 -389 -412 -420 -447 0
-12 -34 -52 -55 -105 -128 -132 -164 -168 -196 -226 -250 -287 -295 -336 -337 -378 -386 -423 -447 0
-12 -34 -52 -55 -105 -128 -132 -164 -168 -196 -226 -250 -284 -330 -335 -338 -343 -389 -423 -447 0
-12 -34 -52 -55 -105 -128 -132 -164 -168 -196 -223 -253 -287 -327 -336 -337 -346 -386 -420 -450 0
-12 -34 -52 -55 -105 -128 -132 -164 -168 -196 -223 -253 -284 -298 -335 -338 -375 -389 -420 -450 0
-12 -34 -52 -55 -105 -128 -132 -164 -168 -196 -223 -250 -264 -287 -335 -338 -386 -409 -423 -450 0
-12 -34 -52 -55 -105 -128 -132 -164 -168 -196 -218 -261 -295 -327 -336 -337 -346 -378 -412 -455 0
-12 -34 -52 -55 -105 -128 -132 -164 -168 -196 -218 -261 -284 -298 -330 -343 -375 -389 -412 -455 0
-12 -34 -52 -55 -105 -128 -132 -164 -168 -196 -218 -250 -264 -295 -330 -343 -378 -409 -423 -455 0
-12 -34 -52 -55 -105 -128 -132 -164 -168 -196 -218 -223 -264 -298 -327 -346 -375 -409 -450 -455 0
-12 -34 -52 -55 -105 -128 -132 -164 -168 -196 -218 -223 -250 -284 -336 -337 -389 -423 -450 -455 0
-12 -34 -52 -55 -105 -128 -132 -164 -168 -196 -217 -264 -298 -330 -335 -338 -343 -375 -409 -456 0
-12 -34 -52 -55 -105 -128 -132 -164 -168 -196 -217 -264 -287 -295 -327 -346 -378 -386 -409 -456 0
-12 -34 -52 -55 -105 -128 -132 -164 -168 -196 -217 -253 -261 -298 -327 -346 -375 -412 -420 -456 0
-12 -34 -52 -55 -105 -128 -132 -164 -168 -196 -217 -226 -261 -295 -330 -343 -378 -412 -447 -456 0
-12 -34 -52 -55 -105 -128 -132 -164 -168 -196 -217 -226 -253 -287 -335 -338 -386 -420 -447 -456 0
-12 -34 -51 -56 -105 -126 -134 -162 -170 -196 -226 -255 -259 -284 -336 -337 -389 -414 -418 -447 0
-12 -34 -51 -56 -105 -126 -134 -162 -170 -196 -226 -250 -289 -293 -336 -337 -380 -384 -423 -447 0
-12 -34 -51 -56 -105 -126 -134 -162 -170 -196 -226 -250 -284 -331 -334 -339 -342 -389 -423 -447 0
-12 -34 -51 -56 -105 -126 -134 -162 -170 -196 -222 -255 -289 -327 -336 -337 -346 -384 -418 -451 0
-12 -34 -51 -56 -105 -126 -134 -162 -170 -196 -222 -255 -284 -298 -334 -339 -375 -389 -418 -451 0
-12 -34 -51 -56 -105 -126 -134 -162 -170 -196 -222 -250 -264 -289 -334 -339 -384 -409 -423 -451 0
-12 -34 -51 -56 -105 -126 -134 -162 -170 -196 -219 -259 -293 -327 -336 -337 -346 -380 -414 -454 0
-12 -34 -51 -56 -105 -126 -134 -162 -170 -196 -219 -259 -284 -298 -331 -342 -375 -389 -414 -454 0
-12 -34 -51 -56 -105 -126 -134 -162 -170 -196 -219 -250 -264 -293 -331 -342 -380 -409 -423 -454 0
-12 -34 -51 -56 -105 -126 -134 -162 -170 -196 -219 -222 -264 -298 -327 -346 -375 -409 -451 -454 0
-12 -34 -51 -56 -105 -126 -134 -162 -170 -196 -219 -222 -250 -284 -336 -337 -389 -423 -451 -454 0
-12 -34 -51 -56 -105 -126 -134 -162 -170 -196 -217 -264 -298 -331 -334 -339 -342 -375 -409 -456 0
-12 -34 -51 -56 -105 -126 -134 -162 -170 -196 -217 -264 -289 -293 -327 -346 -380 -384 -409 -456 0
-12 -34 -51 -56 -105 -126 -134 -162 -170 -196 -217 -255 -259 -298 -327 -346 -375 -414 -418 -456 0
-12 -34 -51 -56 -105 -126 -134 -162 -170 -196 -217 -226 -259 -293 -331 -342 -380 -414 -447 -456 0
-12 -34 -51 -56 -105 -126 -134 -162 -170 -196 -217 -226 -255 -289 -334 -339 -384 -418 -447 -456 0
-12 -34 -50 -59 -105 -123 -137 -159 -173 -196 -223 -255 -259 -287 -335 -338 -386 -414 -418 -450 0
-12 -34 -50 -59 -105 -123 -137 -159 -173 -196 -223 -253 -289 -293 -335 -338 -380 -384 -420 -450 0
-12 -34 -50 -59 -105 -123 -137 -159 -173 -196 -223 -253 -287 -331 -334 -339 -342 -386 -420 -450 0
-12 -34 -50 -59 -105 -123 -137 -159 -173 -196 -222 -255 -289 -330 -335 -338 -343 -384 -418 -451 0
-12 -34 -50 -59 -105 -123 -137 -159 -173 -196 -222 -255 -287 -295 -334 -339 -378 -386 -418 -451 0
-12 -34 -50 -59 -105 -123 -137 -159 -173 -196 -222 -253 -261 -289 -334 -339 -384 -412 -420 -451 0
-12 -34 -50 -59 -105 -123 -137 -159 -173 -196 -219 -259 -293 -330 -335 -338 -343 -380 -414 -454 0
-12 -34 -50 -59 -105 -123 -137 -159 -173 -196 -219 -259 -287 -295 -331 -342 -378 -386 -414 -454 0
-12 -34 -50 -59 -105 -123 -137 -159 -173 -196 -219 -253 -261 -293 -331 -342 -380 -412 -420 -454 0
-12 -34 -50 -59 -105 -123 -137 -159 -173 -196 -219 -222 -261 -295 -330 -343 -378 -412 -451 -454 0
-12 -34 -50 -59 -105 -123 -137 -159 -173 -196 -219 -222 -253 -287 -335 -338 -386 -420 -451 -454 0
-12 -34 -50 -59 -105 -123 -137 -159 -173 -196 -218 -261 -295 -331 -334 -339 -342 -378 -412 -455 0
-12 -34 -50 -59 -105 -123 -137 -159 -173 -196 -218 -261 -289 -293 -330 -343 -380 -384 -412 -455 0
-12 -34 -50 -59 -105 -123 -137 -159 -173 -196 -218 -255 -259 -295 -330 -343 -378 -414 -418 -455 0
-12 -34 -50 -59 -105 -123 -137 -159 -173 -196 -218 -223 -259 -293 -331 -342 -380 -414 -450 -455 0
-12 -34 -50 -59 -105 -123 -137 -159 -173 -196 -218 -223 -255 -289 -334 -339 -384 -418 -450 -455 0
-12 -32 -50 -61 -103 -123 -139 -157 -173 -198 -222 -255 -291 -328 -335 -338 -345 -382 -418 -451 0
-12 -32 -50 -61 -103 -123 -139 -157 -173 -198 -221 -222 -261 -297 -328 -345 -376 -412 -451 -452 0
-12 -32 -50 -61 -103 -123 -139 -157 -173 -198 -218 -261 -297 -331 -332 -341 -342 -376 -412 -455 0
-12 -32 -50 -61 -103 -123 -139 -157 -173 -198 -218 -225 -255 -291 -332 -341 -382 -418 -448 -455 0
-12 -31 -50 -63 -101 -123 -140 -156 -173 -200 -223 -253 -291 -328 -334 -339 -345 -382 -420 -450 0
-12 -31 -50 -63 -101 -123 -140 -156 -173 -200 -221 -223 -259 -297 -328 -345 -376 -414 -450 -452 0
-12 -31 -50 -63 -101 -123 -140 -156 -173 -200 -219 -259 -297 -330 -332 -341 -343 -376 -414 -454 0
-12 -31 -50 -63 -101 -123 -140 -156 -173 -200 -219 -225 -253 -291 -332 -341 -382 -420 -448 -454 0
-12 -30 -54 -59 -98 -130 -137 -159 -166 -203 -219 -259 -300 -323 -335 -338 -350 -373 -414 -454 0
-12 -30 -54 -59 -98 -130 -137 -159 -166 -203 -219 -228 -261 -301 -323 -350 -372 -412 -445 -454 0
-12 -30 -54 -59 -98 -130 -137 -159 -166 -203 -218 -261 -301 -325 -334 -339 -348 -372 -412 -455 0
-12 -30 -54 -59 -98 -130 -137 -159 -166 -203 -218 -230 -259 -300 -325 -348 -373 -414 -443 -455 0
-12 -29 -58 -59 -94 -136 -137 -159 -160 -207 -223 -253 -300 -323 -331 -342 -350 -373 -420 -450 0
-12 -29 -58 -59 -94 -136 -137 -159 -160 -207 -223 -228 -255 -301 -323 -350 -372 -418 -445 -450 0
-12 -29 -58 -59 -94 -136 -137 -159 -160 -207 -222 -255 -301 -325 -330 -343 -348 -372 -418 -451 0
-12 -29 -58 -59 -94 -136 -137 -159 -160 -207 -222 -230 -253 -300 -325 -348 -373 -420 -443 -451 0
-11 -48 -66 -81 -90 -106 -116 -159 -174 -197 -224 -253 -270 -272 -317 -356 -401 -403 -420 -449 0
-11 -48 -66 -81 -90 -106 -116 -159 -174 -197 -220 -259 -268 -274 -311 -362 -399 -405 -414 -453 0
-11 -48 -66 -81 -90 -106 -116 -159 -174 -197 -220 -222 -253 -268 -317 -356 -405 -420 -451 -453 0
-11 -48 -66 -81 -90 -106 -116 -159 -174 -197 -218 -224 -259 -272 -311 -362 -401 -414 -449 -455 0
-11 -47 -66 -82 -89 -106 -117 -158 -174 -198 -225 -252 -271 -272 -317 -356 -401 -402 -421 -448 0
-11 -47 -66 -82 -89 -106 -117 -158 -174 -198 -221 -258 -268 -275 -311 -362 -398 -405 -415 -452 0
-11 -47 -66 -82 -89 -106 -117 -158 -174 -198 -221 -222 -252 -268 -317 -356 -405 -421 -451 -452 0
-11 -47 -66 -82 -89 -106 -117 -158 -174 -198 -218 -225 -258 -272 -311 -362 -401 -415 -448 -455 0
-11 -44 -73 -78 -87 -110 -113 -162 -167 -201 -231 -252 -259 -267 -320 -353 -406 -414 -421 -442 0
-11 -44 -73 -78 -87 -110 -113 -162 -167 -201 -231 -247 -270 -275 -320 -353 -398 -403 -426 -442 0
-11 -44 -73 -78 -87 -110 -113 -162 -167 -201 -231 -247 -267 -307 -314 -359 -366 -406 -426 -442 0
-11 -44 -73 -78 -87 -110 -113 -162 -167 -201 -225 -252 -270 -302 -320 -353 -371 -403 -421 -448 0
-11 -44 -73 -78 -87 -110 -113 -162 -167 -201 -225 -252 -267 -281 -314 -359 -392 -406 -421 -448 0
-11 -44 -73 -78 -87 -110 -113 -162 -167 -201 -225 -247 -265 -270 -314 -359 -403 -408 -426 -448 0
-11 -44 -73 -78 -87 -110 -113 -162 -167 -201 -220 -259 -275 -302 -320 -353 -371 -398 -414 -453 0
-11 -44 -73 -78 -87 -110 -113 -162 -167 -201 -220 -259 -267 -281 -307 -366 -392 -406 -414 -453 0
-11 -44 -73 -78 -87 -110 -113 -162 -167 -201 -220 -247 -265 -275 -307 -366 -398 -408 -426 -453 0
-11 -44 -73 -78 -87 -110 -113 -162 -167 -201 -220 -225 -265 -281 -302 -371 -392 -408 -448 -453 0
-11 -44 -73 -78 -87 -110 -113 -162 -167 -201 -220 -225 -247 -267 -320 -353 -406 -426 -448 -453 0
-11 -44 -73 -78 -87 -110 -113 -162 -167 -201 -217 -265 -281 -307 -314 -359 -366 -392 -408 -456 0
-11 -44 -73 -78 -87 -110 -113 -162 -167 -201 -217 -265 -270 -275 -302 -371 -398 -403 -408 -456 0
-11 -44 -73 -78 -87 -110 -113 -162 -167 -201 -217 -252 -259 -281 -302 -371 -392 -414 -421 -456 0
-11 -44 -73 -78 -87 -110 -113 -162 -167 -201 -217 -231 -259 -275 -307 -366 -398 -414 -442 -456 0
-11 -44 -73 -78 -87 -110 -113 -162 -167 -201 -217 -231 -252 -270 -314 -359 -403 -421 -442 -456 0
-11 -44 -72 -79 -87 -109 -114 -161 -168 -201 -231 -253 -258 -267 -320 -353 -406 -415 -420 -442 0
-11 -44 -72 -79 -87 -109 -114 -161 -168 -201 -231 -247 -271 -274 -320 -353 -399 -402 -426 -442 0
-11 -44 -72 -79 -87 -109 -114 -161 -168 -201 -231 -247 -267 -308 -313 -360 -365 -406 -426 -442 0
-11 -44 -72 -79 -87 -109 -114 -161 -168 -201 -224 -253 -271 -302 -320 -353 -371 -402 -420 -449 0
-11 -44 -72 -79 -87 -109 -114 -161 -168 -201 -224 -253 -267 -281 -313 -360 -392 -406 -420 -449 0
-11 -44 -72 -79 -87 -109 -114 -161 -168 -201 -224 -247 -265 -271 -313 -360 -402 -408 -426 -449 0
-11 -44 -72 -79 -87 -109 -114 -161 -168 -201 -221 -258 -274 -302 -320 -353 -371 -399 -415 -452 0
-11 -44 -72 -79 -87 -109 -114 -161 -168 -201 -221 -258 -267 -281 -308 -365 -392 -406 -415 -452 0
-11 -44 -72 -79 -87 -109 -114 -161 -168 -201 -221 -247 -265 -274 -308 -365 -399 -408 -426 -452 0
-11 -44 -72 -79 -87 -109 -114 -161 -168 -201 -221 -224 -265 -281 -302 -371 -392 -408 -449 -452 0
-11 -44 -72 -79 -87 -109 -114 -161 -168 -201 -221 -224 -247 -267 -320 -353 -406 -426 -449 -452 0
-11 -44 -72 -79 -87 -109 -114 -161 -168 -201 -217 -265 -281 -308 -313 -360 -365 -392 -408 -456 0
-11 -44 -72 -79 -87 -109 -114 -161 -168 -201 -217 -265 -271 -274 -302 -371 -399 -402 -408 -456 0
-11 -44 -72 -79 -87 -109 -114 -161 -168 -201 -217 -253 -258 -281 -302 -371 -392 -415 -420 -456 0
-11 -44 -72 -79 -87 -109 -114 -161 -168 -201 -217 -231 -258 -274 -308 -365 -399 -415 -442 -456 0
-11 -44 -72 -79 -87 -109 -114 -161 -168 -201 -217 -231 -253 -271 -313 -360 -402 -420 -442 -456 0
-11 -44 -66 -84 -87 -106 -120 -156 -174 -201 -225 -253 -258 -270 -314 -359 -403 -415 -420 -448 0
-11 -44 -66 -84 -87 -106 -120 -156 -174 -201 -225 -252 -271 -274 -314 -359 -399 -402 -421 -448 0
-11 -44 -66 -84 -87 -106 -120 -156 -174 -201 -225 -252 -270 -308 -313 -360 -365 -403 -421 -448 0
-11 -44 -66 -84 -87 -106 -120 -156 -174 -201 -224 -253 -271 -307 -314 -359 -366 -402 -420 -449 0
-11 -44 -66 -84 -87 -106 -120 -156 -174 -201 -224 -253 -270 -275 -313 -360 -398 -403 -420 -449 0
-11 -44 -66 -84 -87 -106 -120 -156 -174 -201 -224 -252 -259 -271 -313 -360 -402 -414 -421 -449 0
-11 -44 -66 -84 -87 -106 -120 -156 -174 -201 -221 -258 -274 -307 -314 -359 -366 -399 -415 -452 0
-11 -44 -66 -84 -87 -106 -120 -156 -174 -201 -221 -258 -270 -275 -308 -365 -398 -403 -415 -452 0
-11 -44 -66 -84 -87 -106 -120 -156 -174 -201 -221 -252 -259 -274 -308 -365 -399 -414 -421 -452 0
-11 -44 -66 -84 -87 -106 -120 -156 -174 -201 -221 -224 -259 -275 -307 -366 -398 -414 -449 -452 0
-11 -44 -66 -84 -87 -106 -120 -156 -174 -201 -221 -224 -252 -270 -314 -359 -403 -421 -449 -452 0
-11 -44 -66 -84 -87 -106 -120 -156 -174 -201 -220 -259 -275 -308 -313 -360 -365 -398 -414 -453 0
-11 -44 -66 -84 -87 -106 -120 -156 -174 -201 -220 -259 -271 -274 -307 -366 -399 -402 -414 -453 0
-11 -44 -66 -84 -87 -106 -120 -156 -174 -201 -220 -253 -258 -275 -307 -366 -398 -415 -420 -453 0
-11 -44 -66 -84 -87 -106 -120 -156 -174 -201 -220 -225 -258 -274 -308 -365 -399 -415 -448 -453 0
-11 -44 -66 -84 -87 -106 -120 -156 -174 -201 -220 -225 -253 -271 -313 -360 -402 -420 -448 -453 0
-11 -41 -69 -84 -86 -107 -120 -156 -171 -204 -221 -258 -270 -278 -305 -368 -395 -403 -415 -452 0
-11 -41 -69 -84 -86 -107 -120 -156 -171 -204 -221 -227 -259 -278 -304 -369 -395 -414 -446 -452 0
-11 -41 -69 -84 -86 -107 -120 -156 -171 -204 -220 -259 -271 -277 -304 -369 -396 -402 -414 -453 0
-11 -41 -69 -84 -86 -107 -120 -156 -171 -204 -220 -228 -258 -277 -305 -368 -396 -415 -445 -453 0
-11 -37 -75 -84 -85 -111 -120 -156 -165 -208 -225 -252 -274 -278 -305 -368 -395 -399 -421 -448 0
-11 -37 -75 -84 -85 -111 -120 -156 -165 -208 -225 -227 -253 -278 -304 -369 -395 -420 -446 -448 0
-11 -37 -75 -84 -85 -111 -120 -156 -165 -208 -224 -253 -275 -277 -304 -369 -396 -398 -420 -449 0
-11 -37 -75 -84 -85 -111 -120 -156 -165 -208 -224 -228 -252 -277 -305 -368 -396 -421 -445 -449 0
-11 -34 -50 -60 -104 -122 -137 -159 -174 -197 -224 -253 -286 -331 -333 -340 -342 -387 -420 -449 0
-11 -34 -50 -60 -104 -122 -137 -159 -174 -197 -220 -259 -292 -329 -335 -338 -344 -381 -414 -453 0
-11 -34 -50 -60 -104 -122 -137 -159 -174 -197 -220 -222 -253 -286 -335 -338 -387 -420 -451 -453 0
-11 -34 -50 -60 -104 -122 -137 -159 -174 -197 -218 -224 -259 -292 -331 -342 -381 -414 -449 -455 0
-11 -33 -50 -61 -103 -122 -138 -158 -174 -198 -225 -252 -286 -331 -332 -341 -342 -387 -421 -448 0
-11 -33 -50 -61 -103 -122 -138 -158 -174 -198 -221 -258 -292 -328 -335 -338 -345 -381 -415 -452 0
-11 -33 -50 -61 -103 -122 -138 -158 -174 -198 -221 -222 -252 -286 -335 -338 -387 -421 -451 -452 0
-11 -33 -50 -61 -103 -122 -138 -158 -174 -198 -218 -225 -258 -292 -331 -342 -381 -415 -448 -455 0
-11 -31 -54 -57 -100 -129 -134 -162 -167 -201 -231 -252 -259 -283 -336 -337 -390 -414 -421 -442 0
-11 -31 -54 -57 -100 -129 -134 -162 -167 -201 -231 -247 -289 -296 -336 -337 -377 -384 -426 -442 0
-11 -31 -54 -57 -100 -129 -134 -162 -167 -201 -231 -247 -283 -328 -333 -340 -345 -390 -426 -442 0
-11 -31 -54 -57 -100 -129 -134 -162 -167 -201 -225 -252 -289 -322 -336 -337 -351 -384 -421 -448 0
-11 -31 -54 -57 -100 -129 -134 -162 -167 -201 -225 -252 -283 -301 -333 -340 -372 -390 -421 -448 0
-11 -31 -54 -57 -100 -129 -134 -162 -167 -201 -225 -247 -265 -289 -333 -340 -384 -408 -426 -448 0
-11 -31 -54 -57 -100 -129 -134 -162 -167 -201 -220 -259 -296 -322 -336 -337 -351 -377 -414 -453 0
-11 -31 -54 -57 -100 -129 -134 -162 -167 -201 -220 -259 -283 -301 -328 -345 -372 -390 -414 -453 0
-11 -31 -54 -57 -100 -129 -134 -162 -167 -201 -220 -247 -265 -296 -328 -345 -377 -408 -426 -453 0
-11 -31 -54 -57 -100 -129 -134 -162 -167 -201 -220 -225 -265 -301 -322 -351 -372 -408 -448 -453 0
-11 -31 -54 -57 -100 -129 -134 -162 -167 -201 -220 -225 -247 -283 -336 -337 -390 -426 -448 -453 0
-11 -31 -54 -57 -100 -129 -134 -162 -167 -201 -217 -265 -301 -328 -333 -340 -345 -372 -408 -456 0
-11 -31 -54 -57 -100 -129 -134 -162 -167 -201 -217 -265 -289 -296 -322 -351 -377 -384 -408 -456 0
-11 -31 -54 -57 -100 -129 -134 -162 -167 -201 -217 -252 -259 -301 -322 -351 -372 -414 -421 -456 0
-11 -31 -54 -57 -100 -129 -134 -162 -167 -201 -217 -231 -259 -296 -328 -345 -377 -414 -442 -456 0
-11 -31 -54 -57 -100 -129 -134 -162 -167 -201 -217 -231 -252 -289 -333 -340 -384 -421 -442 -456 0
-11 -31 -53 -58 -100 -128 -135 -161 -168 -201 -231 -253 -258 -283 -336 -337 -390 -415 -420 -442 0
-11 -31 -53 -58 -100 -128 -135 -161 -168 -201 -231 -247 -290 -295 -336 -337 -378 -383 -426 -442 0
-11 -31 -53 -58 -100 -128 -135 -161 -168 -201 -231 -247 -283 -329 -332 -341 -344 -390 -426 -442 0
-11 -31 -53 -58 -100 -128 -135 -161 -168 -201 -224 -253 -290 -322 -336 -337 -351 -383 -420 -449 0
-11 -31 -53 -58 -100 -128 -135 -161 -168 -201 -224 -253 -283 -301 -332 -341 -372 -390 -420 -449 0
-11 -31 -53 -58 -100 -128 -135 -161 -168 -201 -224 -247 -265 -290 -332 -341 -383 -408 -426 -449 0
-11 -31 -53 -58 -100 -128 -135 -161 -168 -201 -221 -258 -295 -322 -336 -337 -351 -378 -415 -452 0
-11 -31 -53 -58 -100 -128 -135 -161 -168 -201 -221 -258 -283 -301 -329 -344 -372 -390 -415 -452 0
-11 -31 -53 -58 -100 -128 -135 -161 -168 -201 -221 -247 -265 -295 -329 -344 -378 -408 -426 -452 0
-11 -31 -53 -58 -100 -128 -135 -161 -168 -201 -221 -224 -265 -301 -322 -351 -372 -408 -449 -452 0
-11 -31 -53 -58 -100 -128 -135 -161 -168 -201 -221 -224 -247 -283 -336 -337 -390 -426 -449 -452 0
-11 -31 -53 -58 -100 -128 -135 -161 -168 -201 -217 -265 -301 -329 -332 -341 -344 -372 -408 -456 0
-11 -31 -53 -58 -100 -128 -135 -161 -168 -201 -217 -265 -290 -295 -322 -351 -378 -383 -408 -456 0
-11 -31 -53 -58 -100 -128 -135 -161 -168 -201 -217 -253 -258 -301 -322 -351 -372 -415 -420 -456 0
-11 -31 -53 -58 -100 -128 -135 -161 -168 -201 -217 -231 -258 -295 -329 -344 -378 -415 -442 -456 0
-11 -31 -53 -58 -100 -128 -135 -161 -168 -201 -217 -231 -253 -290 -332 -341 -383 -420 -442 -456 0
-11 -31 -50 -64 -100 -122 -140 -156 -174 -201 -225 -253 -258 -289 -333 -340 -384 -415 -420 -448 0
-11 -31 -50 -64 -100 -122 -140 -156 -174 -201 -225 -252 -290 -295 -333 -340 -378 -383 -421 -448 0
-11 -31 -50 -64 -100 -122 -140 -156 -174 -201 -225 -252 -289 -329 -332 -341 -344 -384 -421 -448 0
-11 -31 -50 -64 -100 -122 -140 -156 -174 -201 -224 -253 -290 -328 -333 -340 -345 -383 -420 -449 0
-11 -31 -50 -64 -100 -122 -140 -156 -174 -201 -224 -253 -289 -296 -332 -341 -377 -384 -420 -449 0
-11 -31 -50 -64 -100 -122 -140 -156 -174 -201 -224 -252 -259 -290 -332 -341 -383 -414 -421 -449 0
-11 -31 -50 -64 -100 -122 -140 -156 -174 -201 -221 -258 -295 -328 -333 -340 -345 -378 -415 -452 0
-11 -31 -50 -64 -100 -122 -140 -156 -174 -201 -221 -258 -289 -296 -329 -344 -377 -384 -415 -452 0
-11 -31 -50 -64 -100 -122 -140 -156 -174 -201 -221 -252 -259 -295 -329 -344 -378 -414 -421 -452 0
-11 -31 -50 -64 -100 -122 -140 -156 -174 -201 -221 -224 -259 -296 -328 -345 -377 -414 -449 -452 0
-11 -31 -50 -64 -100 -122 -140 -156 -174 -201 -221 -224 -252 -289 -333 -340 -384 -421 -449 -452 0
-11 -31 -50 -64 -100 -122 -140 -156 -174 -201 -220 -259 -296 -329 -332 -341 -344 -377 -414 -453 0
-11 -31 -50 -64 -100 -122 -140 -156 -174 -201 -220 -259 -290 -295 -328 -345 -378 -383 -414 -453 0
-11 -31 -50 -64 -100 -122 -140 -156 -174 -201 -220 -253 -258 -296 -328 -345 -377 -415 -420 -453 0
-11 -31 -50 -64 -100 -122 -140 -156 -174 -201 -220 -225 -258 -295 -329 -344 -378 -415 -448 -453 0
-11 -31 -50 -64 -100 -122 -140 -156 -174 -201 -220 -225 -253 -290 -332 -341 -383 -420 -448 -453 0
-11 -30 -51 -64 -97 -125 -140 -156 -171 -204 -221 -258 -298 -325 -333 -340 -348 -375 -415 -452 0
-11 -30 -51 -64 -97 -125 -140 -156 -171 -204 -221 -227 -259 -299 -325 -348 -374 -414 -446 -452 0
-11 -30 -51 -64 -97 -125 -140 -156 -171 -204 -220 -259 -299 -326 -332 -341 -347 -374 -414 -453 0
-11 -30 -51 -64 -97 -125 -140 -156 -171 -204 -220 -228 -258 -298 -326 -347 -375 -415 -445 -453 0
-11 -29 -55 -64 -93 -131 -140 -156 -165 -208 -225 -252 -298 -325 -329 -344 -348 -375 -421 -448 0
-11 -29 -55 -64 -93 -131 -140 -156 -165 -208 -225 -227 -253 -299 -325 -348 -374 -420 -446 -448 0
-11 -29 -55 -64 -93 -131 -140 -156 -165 -208 -224 -253 -299 -326 -328 -345 -347 -374 -420 -449 0
-11 -29 -55 -64 -93 -131 -140 -156 -165 -208 -224 -228 -252 -298 -326 -347 -375 -421 -445 -449 0
-10 -46 -65 -81 -90 -106 -118 -159 -175 -199 -224 -255 -270 -273 -317 -356 -400 -403 -418 -449 0
-10 -46 -65 -81 -90 -106 -118 -159 -175 -199 -220 -261 -269 -274 -311 -362 -399 -404 -412 -453 0
-10 -46 -65 -81 -90 -106 -118 -159 -175 -199 -220 -223 -255 -269 -317 -356 -404 -418 -450 -453 0
-10 -46 -65 -81 -90 -106 -118 -159 -175 -199 -219 -224 -261 -273 -311 -362 -400 -412 -449 -454 0
-10 -45 -65 -82 -89 -106 -119 -158 -175 -200 -225 -254 -271 -273 -317 -356 -400 -402 -419 -448 0
-10 -45 -65 -82 -89 -106 -119 -158 -175 -200 -221 -260 -269 -275 -311 -362 -398 -404 -413 -452 0
-10 -45 -65 -82 -89 -106 -119 -158 -175 -200 -221 -223 -254 -269 -317 -356 -404 -419 -450 -452 0
-10 -45 -65 -82 -89 -106 -119 -158 -175 -200 -219 -225 -260 -273 -311 -362 -400 -413 -448 -454 0
-10 -44 -71 -76 -88 -110 -113 -164 -169 -201 -231 -254 -261 -267 -321 -352 -406 -412 -419 -442 0
-10 -44 -71 -76 -88 -110 -113 -164 -169 -201 -231 -248 -270 -275 -321 -352 -398 -403 -425 -442 0
-10 -44 -71 -76 -88 -110 -113 -164 -169 -201 -231 -248 -267 -309 -316 -357 -364 -406 -425 -442 0
-10 -44 -71 -76 -88 -110 -113 -164 -169 -201 -225 -254 -270 -303 -321 -352 -370 -403 -419 -448 0
-10 -44 -71 -76 -88 -110 -113 -164 -169 -201 -225 -254 -267 -281 -316 -357 -392 -406 -419 -448 0
-10 -44 -71 -76 -88 -110 -113 -164 -169 -201 -225 -248 -266 -270 -316 -357 -403 -407 -425 -448 0
-10 -44 -71 -76 -88 -110 -113 -164 -169 -201 -220 -261 -275 -303 -321 -352 -370 -398 -412 -453 0
-10 -44 -71 -76 -88 -110 -113 -164 -169 -201 -220 -261 -267 -281 -309 -364 -392 -406 -412 -453 0
-10 -44 -71 -76 -88 -110 -113 -164 -169 -201 -220 -248 -266 -275 -309 -364 -398 -407 -425 -453 0
-10 -44 -71 -76 -88 -110 -113 -164 -169 -201 -220 -225 -266 -281 -303 -370 -392 -407 -448 -453 0
-10 -44 -71 -76 -88 -110 -113 -164 -169 -201 -220 -225 -248 -267 -321 -352 -406 -425 -448 -453 0
-10 -44 -71 -76 -88 -110 -113 -164 -169 -201 -217 -266 -281 -309 -316 -357 -364 -392 -407 -456 0
-10 -44 -71 -76 -88 -110 -113 -164 -169 -201 -217 -266 -270 -275 -303 -370 -398 -403 -407 -456 0
-10 -44 -71 -76 -88 -110 -113 -164 -169 -201 -217 -254 -261 -281 -303 -370 -392 -412 -419 -456 0
-10 -44 -71 -76 -88 -110 -113 -164 -169 -201 -217 -231 -261 -275 -309 -364 -398 -412 -442 -456 0
-10 -44 -71 -76 -88 -110 -113 -164 -169 -201 -217 -231 -254 -270 -316 -357 -403 -419 -442 -456 0
-10 -44 -70 -77 -88 -109 -114 -163 -170 -201 -231 -255 -260 -267 -321 -352 -406 -413 -418 -442 0
-10 -44 -70 -77 -88 -109 -114 -163 -170 -201 -231 -248 -271 -274 -321 -352 -399 -402 -425 -442 0
-10 -44 -70 -77 -88 -109 -114 -163 -170 -201 -231 -248 -267 -310 -315 -358 -363 -406 -425 -442 0
-10 -44 -70 -77 -88 -109 -114 -163 -170 -201 -224 -255 -271 -303 -321 -352 -370 -402 -418 -449 0
-10 -44 -70 -77 -88 -109 -114 -163 -170 -201 -224 -255 -267 -281 -315 -358 -392 -406 -418 -449 0
-10 -44 -70 -77 -88 -109 -114 -163 -170 -201 -224 -248 -266 -271 -315 -358 -402 -407 -425 -449 0
-10 -44 -70 -77 -88 -109 -114 -163 -170 -201 -221 -260 -274 -303 -321 -352 -370 -399 -413 -452 0
-10 -44 -70 -77 -88 -109 -114 -163 -170 -201 -221 -260 -267 -281 -310 -363 -392 -406 -413 -452 0
-10 -44 -70 -77 -88 -109 -114 -163 -170 -201 -221 -248 -266 -274 -310 -363 -399 -407 -425 -452 0
-10 -44 -70 -77 -88 -109 -114 -163 -170 -201 -221 -224 -266 -281 -303 -370 -392 -407 -449 -452 0
-10 -44 -70 -77 -88 -109 -114 -163 -170 -201 -221 -224 -248 -267 -321 -352 -406 -425 -449 -452 0
-10 -44 -70 -77 -88 -109 -114 -163 -170 -201 -217 -266 -281 -310 -315 -358 -363 -392 -407 -456 0
-10 -44 -70 -77 -88 -109 -114 -163 -170 -201 -217 -266 -271 -274 -303 -370 -399 -402 -407 -456 0
-10 -44 -70 -77 -88 -109 -114 -163 -170 -201 -217 -255 -260 -281 -303 -370 -392 -413 -418 -456 0
-10 -44 -70 -77 -88 -109 -114 -163 -170 -201 -217 -231 -260 -274 -310 -363 -399 -413 -442 -456 0
-10 -44 -70 -77 -88 -109 -114 -163 -170 -201 -217 -231 -255 -271 -315 -358 -402 -418 -442 -456 0
-10 -44 -65 -83 -88 -106 -120 -157 -175 -201 -225 -255 -260 -270 -316 -357 -403 -413 -418 -448 0
-10 -44 -65 -83 -88 -106 -120 -157 -175 -201 -225 -254 -271 -274 -316 -357 -399 -402 -419 -448 0
-10 -44 -65 -83 -88 -106 -120 -157 -175 -201 -225 -254 -270 -310 -315 -358 -363 -403 -419 -448 0
-10 -44 -65 -83 -88 -106 -120 -157 -175 -201 -224 -255 -271 -309 -316 -357 -364 -402 -418 -449 0
-10 -44 -65 -83 -88 -106 -120 -157 -175 -201 -224 -255 -270 -275 -315 -358 -398 -403 -418 -449 0
-10 -44 -65 -83 -88 -106 -120 -157 -175 -201 -224 -254 -261 -271 -315 -358 -402 -412 -419 -449 0
-10 -44 -65 -83 -88 -106 -120 -157 -175 -201 -221 -260 -274 -309 -316 -357 -364 -399 -413 -452 0
-10 -44 -65 -83 -88 -106 -120 -157 -175 -201 -221 -260 -270 -275 -310 -363 -398 -403 -413 -452 0
-10 -44 -65 -83 -88 -106 -120 -157 -175 -201 -221 -254 -261 -274 -310 -363 -399 -412 -419 -452 0
-10 -44 -65 -83 -88 -106 -120 -157 -175 -201 -221 -224 -261 -275 -309 -364 -398 -412 -449 -452 0
-10 -44 -65 -83 -88 -106 -120 -157 -175 -201 -221 -224 -254 -270 -316 -357 -403 -419 -449 -452 0
-10 -44 -65 -83 -88 -106 -120 -157 -175 -201 -220 -261 -275 -310 -315 -358 -363 -398 -412 -453 0
-10 -44 -65 -83 -88 -106 -120 -157 -175 -201 -220 -261 -271 -274 -309 -364 -399 -402 -412 -453 0
-10 -44 -65 -83 -88 -106 -120 -157 -175 -201 -220 -255 -260 -275 -309 -364 -398 -413 -418 -453 0
-10 -44 -65 -83 -88 -106 -120 -157 -175 -201 -220 -225 -260 -274 -310 -363 -399 -413 -448 -453 0
-10 -44 -65 -83 -88 -106 -120 -157 -175 -201 -220 -225 -255 -271 -315 -358 -402 -418 -448 -453 0
-10 -40 -69 -83 -86 -108 -120 -157 -171 -205 -221 -260 -270 -280 -305 -368 -393 -403 -413 -452 0
-10 -40 -69 -83 -86 -108 -120 -157 -171 -205 -221 -229 -261 -280 -304 -369 -393 -412 -444 -452 0
-10 -40 -69 -83 -86 -108 -120 -157 -171 -205 -220 -261 -271 -279 -304 -369 -394 -402 -412 -453 0
-10 -40 -69 -83 -86 -108 -120 -157 -171 -205 -220 -230 -260 -279 -305 -368 -394 -413 -443 -453 0
-10 -36 -75 -83 -85 -112 -120 -157 -165 -209 -225 -254 -274 -280 -305 -368 -393 -399 -419 -448 0
-10 -36 -75 -83 -85 -112 -120 -157 -165 -209 -225 -229 -255 -280 -304 -369 -393 -418 -444 -448 0
-10 -36 -75 -83 -85 -112 -120 -157 -165 -209 -224 -255 -275 -279 -304 -369 -394 -398 -418 -449 0
-10 -36 -75 -83 -85 -112 -120 -157 -165 -209 -224 -230 -254 -279 -305 -368 -394 -419 -443 -449 0
-10 -34 -50 -62 -102 -121 -137 -159 -175 -199 -224 -255 -286 -330 -333 -340 -343 -387 -418 -449 0
-10 -34 -50 -62 -102 -121 -137 -159 -175 -199 -220 -261 -292 -329 -334 -339 -344 -381 -412 -453 0
-10 -34 -50 -62 -102 -121 -137 -159 -175 -199 -220 -223 -255 -286 -334 -339 -387 -418 -450 -453 0
-10 -34 -50 -62 -102 -121 -137 -159 -175 -199 -219 -224 -261 -292 -330 -343 -381 -412 -449 -454 0
-10 -33 -50 -63 -101 -121 -138 -158 -175 -200 -225 -254 -286 -330 -332 -341 -343 -387 -419 -448 0
-10 -33 -50 -63 -101 -121 -138 -158 -175 -200 -221 -260 -292 -328 -334 -339 -345 -381 -413 -452 0
-10 -33 -50 -63 -101 -121 -138 -158 -175 -200 -221 -223 -254 -286 -334 -339 -387 -419 -450 -452 0
-10 -33 -50 -63 -101 -121 -138 -158 -175 -200 -219 -225 -260 -292 -330 -343 -381 -413 -448 -454 0
-10 -32 -54 -57 -100 -127 -132 -164 -169 -201 -231 -254 -261 -282 -336 -337 -391 -412 -419 -442 0
-10 -32 -54 -57 -100 -127 -132 -164 -169 -201 -231 -248 -287 -294 -336 -337 -379 -386 -425 -442 0
-10 -32 -54 -57 -100 -127 -132 -164 -169 -201 -231 -248 -282 -328 -333 -340 -345 -391 -425 -442 0
-10 -32 -54 -57 -100 -127 -132 -164 -169 -201 -225 -254 -287 -322 -336 -337 -351 -386 -419 -448 0
-10 -32 -54 -57 -100 -127 -132 -164 -169 -201 -225 -254 -282 -300 -333 -340 -373 -391 -419 -448 0
-10 -32 -54 -57 -100 -127 -132 -164 -169 -201 -225 -248 -266 -287 -333 -340 -386 -407 -425 -448 0
-10 -32 -54 -57 -100 -127 -132 -164 -169 -201 -220 -261 -294 -322 -336 -337 -351 -379 -412 -453 0
-10 -32 -54 -57 -100 -127 -132 -164 -169 -201 -220 -261 -282 -300 -328 -345 -373 -391 -412 -453 0
-10 -32 -54 -57 -100 -127 -132 -164 -169 -201 -220 -248 -266 -294 -328 -345 -379 -407 -425 -453 0
-10 -32 -54 -57 -100 -127 -132 -164 -169 -201 -220 -225 -266 -300 -322 -351 -373 -407 -448 -453 0
-10 -32 -54 -57 -100 -127 -132 -164 -169 -201 -220 -225 -248 -282 -336 -337 -391 -425 -448 -453 0
-10 -32 -54 -57 -100 -127 -132 -164 -169 -201 -217 -266 -300 -328 -333 -340 -345 -373 -407 -456 0
-10 -32 -54 -57 -100 -127 -132 -164 -169 -201 -217 -266 -287 -294 -322 -351 -379 -386 -407 -456 0
-10 -32 -54 -57 -100 -127 -132 -164 -169 -201 -217 -254 -261 -300 -322 -351 -373 -412 -419 -456 0
-10 -32 -54 -57 -100 -127 -132 -164 -169 -201 -217 -231 -261 -294 -328 -345 -379 -412 -442 -456 0
-10 -32 -54 -57 -100 -127 -132 -164 -169 -201 -217 -231 -254 -287 -333 -340 -386 -419 -442 -456 0
-10 -32 -53 -58 -100 -126 -133 -163 -170 -201 -231 -255 -260 -282 -336 -337 -391 -413 -418 -442 0
-10 -32 -53 -58 -100 -126 -133 -163 -170 -201 -231 -248 -288 -293 -336 -337 -380 -385 -425 -442 0
-10 -32 -53 -58 -100 -126 -133 -163 -170 -201 -231 -248 -282 -329 -332 -341 -344 -391 -425 -442 0
-10 -32 -53 -58 -100 -126 -133 -163 -170 -201 -224 -255 -288 -322 -336 -337 -351 -385 -418 -449 0
-10 -32 -53 -58 -100 -126 -133 -163 -170 -201 -224 -255 -282 -300 -332 -341 -373 -391 -418 -449 0
-10 -32 -53 -58 -100 -126 -133 -163 -170 -201 -224 -248 -266 -288 -332 -341 -385 -407 -425 -449 0
-10 -32 -53 -58 -100 -126 -133 -163 -170 -201 -221 -260 -293 -322 -336 -337 -351 -380 -413 -452 0
-10 -32 -53 -58 -100 -126 -133 -163 -170 -201 -221 -260 -282 -300 -329 -344 -373 -391 -413 -452 0
-10 -32 -53 -58 -100 -126 -133 -163 -170 -201 -221 -248 -266 -293 -329 -344 -380 -407 -425 -452 0
-10 -32 -53 -58 -100 -126 -133 -163 -170 -201 -221 -224 -266 -300 -322 -351 -373 -407 -449 -452 0
-10 -32 -53 -58 -100 -126 -133 -163 -170 -201 -221 -224 -248 -282 -336 -337 -391 -425 -449 -452 0
-10 -32 -53 -58 -100 -126 -133 -163 -170 -201 -217 -266 -300 -329 -332 -341 -344 -373 -407 -456 0
-10 -32 -53 -58 -100 -126 -133 -163 -170 -201 -217 -266 -288 -293 -322 -351 -380 -385 -407 -456 0
-10 -32 -53 -58 -100 -126 -133 -163 -170 -201 -217 -255 -260 -300 -322 -351 -373 -413 -418 -456 0
-10 -32 -53 -58 -100 -126 -133 -163 -170 -201 -217 -231 -260 -293 -329 -344 -380 -413 -442 -456 0
-10 -32 -53 -58 -100 -126 -133 -163 -170 -201 -217 -231 -255 -288 -332 -341 -385 -418 -442 -456 0
-10 -32 -50 -64 -100 -121 -139 -157 -175 -201 -225 -255 -260 -287 -333 -340 -386 -413 -418 -448 0
-10 -32 -50 -64 -100 -121 -139 -157 -175 -201 -225 -254 -288 -293 -333 -340 -380 -385 -419 -448 0
-10 -32 -50 -64 -100 -121 -139 -157 -175 -201 -225 -254 -287 -329 -332 -341 -344 -386 -419 -448 0
-10 -32 -50 -64 -100 -121 -139 -157 -175 -201 -224 -255 -288 -328 -333 -340 -345 -385 -418 -449 0
-10 -32 -50 -64 -100 -121 -139 -157 -175 -201 -224 -255 -287 -294 -332 -341 -379 -386 -418 -449 0
-10 -32 -50 -64 -100 -121 -139 -157 -175 -201 -224 -254 -261 -288 -332 -341 -385 -412 -419 -449 0
-10 -32 -50 -64 -100 -121 -139 -157 -175 -201 -221 -260 -293 -328 -333 -340 -345 -380 -413 -452 0
-10 -32 -50 -64 -100 -121 -139 -157 -175 -201 -221 -260 -287 -294 -329 -344 -379 -386 -413 -452 0
-10 -32 -50 -64 -100 -121 -139 -157 -175 -201 -221 -254 -261 -293 -329 -344 -380 -412 -419 -452 0
-10 -32 -50 -64 -100 -121 -139 -157 -175 -201 -221 -224 -261 -294 -328 -345 -379 -412 -449 -452 0
-10 -32 -50 -64 -100 -121 -139 -157 -175 -201 -221 -224 -254 -287 -333 -340 -386 -419 -449 -452 0
-10 -32 -50 -64 -100 -121 -139 -157 -175 -201 -220 -261 -294 -329 -332 -341 -344 -379 -412 -453 0
-10 -32 -50 -64 -100 -121 -139 -157 -175 -201 -220 -261 -288 -293 -328 -345 -380 -385 -412 -453 0
-10 -32 -50 -64 -100 -121 -139 -157 -175 -201 -220 -255 -260 -294 -328 -345 -379 -413 -418 -453 0
-10 -32 -50 -64 -100 -121 -139 -157 -175 -201 -220 -225 -260 -293 -329 -344 -380 -413 -448 -453 0
-10 -32 -50 -64 -100 -121 -139 -157 -175 -201 -220 -225 -255 -288 -332 -341 -385 -418 -448 -453 0
-10 -30 -52 -64 -96 -125 -139 -157 -171 -205 -221 -260 -298 -323 -333 -340 -350 -375 -413 -452 0
-10 -30 -52 -64 -96 -125 -139 -157 -171 -205 -221 -229 -261 -299 -323 -350 -374 -412 -444 -452 0
-10 -30 -52 -64 -96 -125 -139 -157 -171 -205 -220 -261 -299 -324 -332 -341 -349 -374 -412 -453 0
-10 -30 -52 -64 -96 -125 -139 -157 -171 -205 -220 -230 -260 -298 -324 -349 -375 -413 -443 -453 0
-10 -29 -56 -64 -92 -131 -139 -157 -165 -209 -225 -254 -298 -323 -329 -344 -350 -375 -419 -448 0
-10 -29 -56 -64 -92 -131 -139 -157 -165 -209 -225 -229 -255 -299 -323 -350 -374 -418 -444 -448 0
-10 -29 -56 -64 -92 -131 -139 -157 -165 -209 -224 -255 -299 -324 -328 -345 -349 -374 -418 -449 0
-10 -29 -56 -64 -92 -131 -139 -157 -165 -209 -224 -230 -254 -298 -324 -349 -375 -419 -443 -449 0
-9 -43 -67 -75 -90 -109 -115 -165 -173 -202 -229 -253 -269 -277 -321 -352 -396 -404 -420 -444 0
-9 -43 -67 -75 -90 -109 -115 -165 -173 -202 -227 -255 -268 -279 -320 -353 -394 -405 -418 -446 0
-9 -43 -67 -75 -90 -109 -115 -165 -173 -202 -219 -227 -253 -268 -321 -352 -405 -420 -446 -454 0
-9 -43 -67 -75 -90 -109 -115 -165 -173 -202 -218 -229 -255 -269 -320 -353 -404 -418 -444 -455 0
-9 -42 -68 -75 -89 -110 -115 -165 -172 -203 -230 -252 -269 -278 -321 -352 -395 -404 -421 -443 0
-9 -42 -68 -75 -89 -110 -115 -165 -172 -203 -228 -254 -268 -280 -320 -353 -393 -405 -419 -445 0
-9 -42 -68 -75 -89 -110 -115 -165 -172 -203 -219 -228 -252 -268 -321 -352 -405 -421 -445 -454 0
-9 -42 -68 -75 -89 -110 -115 -165 -172 -203 -218 -230 -254 -269 -320 -353 -404 -419 -443 -455 0
-9 -41 -65 -80 -88 -107 -120 -160 -175 -204 -228 -254 -271 -277 -319 -354 -396 -402 -419 -445 0
-9 -41 -65 -80 -88 -107 -120 -160 -175 -204 -227 -255 -270 -278 -318 -355 -395 -403 -418 -446 0
-9 -41 -65 -80 -88 -107 -120 -160 -175 -204 -221 -227 -254 -270 -319 -354 -403 -419 -446 -452 0
-9 -41 -65 -80 -88 -107 -120 -160 -175 -204 -220 -228 -255 -271 -318 -355 -402 -418 -445 -453 0
-9 -40 -66 -80 -87 -108 -120 -160 -174 -205 -230 -252 -271 -279 -319 -354 -394 -402 -421 -443 0
-9 -40 -66 -80 -87 -108 -120 -160 -174 -205 -229 -253 -270 -280 -318 -355 -393 -403 -420 -444 0
-9 -40 -66 -80 -87 -108 -120 -160 -174 -205 -221 -229 -252 -270 -319 -354 -403 -421 -444 -452 0
-9 -40 -66 -80 -87 -108 -120 -160 -174 -205 -220 -230 -253 -271 -318 -355 -402 -420 -443 -453 0
-9 -35 -77 -78 -85 -117 -118 -162 -163 -210 -231 -252 -255 -276 -311 -362 -397 -418 -421 -442 0
-9 -35 -77 -78 -85 -117 -118 -162 -163 -210 -231 -251 -277 -280 -311 -362 -393 -396 -422 -442 0
-9 -35 -77 -78 -85 -117 -118 -162 -163 -210 -231 -251 -276 -307 -310 -363 -366 -397 -422 -442 0
-9 -35 -77 -78 -85 -117 -118 -162 -163 -210 -230 -252 -277 -306 -311 -362 -367 -396 -421 -443 0
-9 -35 -77 -78 -85 -117 -118 -162 -163 -210 -230 -252 -276 -281 -310 -363 -392 -397 -421 -443 0
-9 -35 -77 -78 -85 -117 -118 -162 -163 -210 -230 -251 -256 -277 -310 -363 -396 -417 -422 -443 0
-9 -35 -77 -78 -85 -117 -118 -162 -163 -210 -227 -255 -280 -306 -311 -362 -367 -393 -418 -446 0
-9 -35 -77 -78 -85 -117 -118 -162 -163 -210 -227 -255 -276 -281 -307 -366 -392 -397 -418 -446 0
-9 -35 -77 -78 -85 -117 -118 -162 -163 -210 -227 -251 -256 -280 -307 -366 -393 -417 -422 -446 0
-9 -35 -77 -78 -85 -117 -118 -162 -163 -210 -227 -230 -256 -281 -306 -367 -392 -417 -443 -446 0
-9 -35 -77 -78 -85 -117 -118 -162 -163 -210 -227 -230 -251 -276 -311 -362 -397 -422 -443 -446 0
-9 -35 -77 -78 -85 -117 -118 -162 -163 -210 -226 -256 -281 -307 -310 -363 -366 -392 -417 -447 0
-9 -35 -77 -78 -85 -117 -118 -162 -163 -210 -226 -256 -277 -280 -306 -367 -393 -396 -417 -447 0
-9 -35 -77 -78 -85 -117 -118 -162 -163 -210 -226 -252 -255 -281 -306 -367 -392 -418 -421 -447 0
-9 -35 -77 -78 -85 -117 -118 -162 -163 -210 -226 -231 -255 -280 -307 -366 -393 -418 -442 -447 0
-9 -35 -77 -78 -85 -117 -118 -162 -163 -210 -226 -231 -252 -277 -310 -363 -396 -421 -442 -447 0
-9 -35 -76 -79 -85 -116 -119 -161 -164 -210 -231 -253 -254 -276 -311 -362 -397 -419 -420 -442 0
-9 -35 -76 -79 -85 -116 -119 -161 -164 -210 -231 -251 -278 -279 -311 -362 -394 -395 -422 -442 0
-9 -35 -76 -79 -85 -116 -119 -161 -164 -210 -231 -251 -276 -308 -309 -364 -365 -397 -422 -442 0
-9 -35 -76 -79 -85 -116 -119 -161 -164 -210 -229 -253 -278 -306 -311 -362 -367 -395 -420 -444 0
-9 -35 -76 -79 -85 -116 -119 -161 -164 -210 -229 -253 -276 -281 -309 -364 -392 -397 -420 -444 0
-9 -35 -76 -79 -85 -116 -119 -161 -164 -210 -229 -251 -256 -278 -309 -364 -395 -417 -422 -444 0
-9 -35 -76 -79 -85 -116 -119 -161 -164 -210 -228 -254 -279 -306 -311 -362 -367 -394 -419 -445 0
-9 -35 -76 -79 -85 -116 -119 -161 -164 -210 -228 -254 -276 -281 -308 -365 -392 -397 -419 -445 0
-9 -35 -76 -79 -85 -116 -119 -161 -164 -210 -228 -251 -256 -279 -308 -365 -394 -417 -422 -445 0
-9 -35 -76 -79 -85 -116 -119 -161 -164 -210 -228 -229 -256 -281 -306 -367 -392 -417 -444 -445 0
-9 -35 -76 -79 -85 -116 -119 -161 -164 -210 -228 -229 -251 -276 -311 -362 -397 -422 -444 -445 0
-9 -35 -76 -79 -85 -116 -119 -161 -164 -210 -226 -256 -281 -308 -309 -364 -365 -392 -417 -447 0
-9 -35 -76 -79 -85 -116 -119 -161 -164 -210 -226 -256 -278 -279 -306 -367 -394 -395 -417 -447 0
-9 -35 -76 -79 -85 -116 -119 -161 -164 -210 -226 -253 -254 -281 -306 -367 -392 -419 -420 -447 0
-9 -35 -76 -79 -85 -116 -119 -161 -164 -210 -226 -231 -254 -279 -308 -365 -394 -419 -442 -447 0
-9 -35 -76 -79 -85 -116 -119 -161 -164 -210 -226 -231 -253 -278 -309 -364 -395 -420 -442 -447 0
-9 -35 -75 -80 -85 -115 -120 -160 -165 -210 -230 -253 -254 -277 -310 -363 -396 -419 -420 -443 0
-9 -35 -75 -80 -85 -115 -120 -160 -165 -210 -230 -252 -278 -279 -310 -363 -394 -395 -421 -443 0
-9 -35 -75 -80 -85 -115 -120 -160 -165 -210 -230 -252 -277 -308 -309 -364 -365 -396 -421 -443 0
-9 -35 -75 -80 -85 -115 -120 -160 -165 -210 -229 -253 -278 -307 -310 -363 -366 -395 -420 -444 0
-9 -35 -75 -80 -85 -115 -120 -160 -165 -210 -229 -253 -277 -280 -309 -364 -393 -396 -420 -444 0
-9 -35 -75 -80 -85 -115 -120 -160 -165 -210 -229 -252 -255 -278 -309 -364 -395 -418 -421 -444 0
-9 -35 -75 -80 -85 -115 -120 -160 -165 -210 -228 -254 -279 -307 -310 -363 -366 -394 -419 -445 0
-9 -35 -75 -80 -85 -115 -120 -160 -165 -210 -228 -254 -277 -280 -308 -365 -393 -396 -419 -445 0
-9 -35 -75 -80 -85 -115 -120 -160 -165 -210 -228 -252 -255 -279 -308 -365 -394 -418 -421 -445 0
-9 -35 -75 -80 -85 -115 -120 -160 -165 -210 -228 -229 -255 -280 -307 -366 -393 -418 -444 -445 0
-9 -35 -75 -80 -85 -115 -120 -160 -165 -210 -228 -229 -252 -277 -310 -363 -396 -421 -444 -445 0
-9 -35 -75 -80 -85 -115 -120 -160 -165 -210 -227 -255 -280 -308 -309 -364 -365 -393 -418 -446 0
-9 -35 -75 -80 -85 -115 -120 -160 -165 -210 -227 -255 -278 -279 -307 -366 -394 -395 -418 -446 0
-9 -35 -75 -80 -85 -115 -120 -160 -165 -210 -227 -253 -254 -280 -307 -366 -393 -419 -420 -446 0
-9 -35 -75 -80 -85 -115 -120 -160 -165 -210 -227 -230 -254 -279 -308 -365 -394 -419 -443 -446 0
-9 -35 -75 -80 -85 -115 -120 -160 -165 -210 -227 -230 -253 -278 -309 -364 -395 -420 -443 -446 0
-9 -34 -53 -59 -99 -123 -131 -165 -173 -202 -229 -253 -282 -326 -334 -339 -347 -391 -420 -444 0
-9 -34 -53 -59 -99 -123 -131 -165 -173 -202 -227 -255 -283 -324 -335 -338 -349 -390 -418 -446 0
-9 -34 -53 -59 -99 -123 -131 -165 -173 -202 -219 -227 -253 -282 -335 -338 -391 -420 -446 -454 0
-9 -34 -53 -59 -99 -123 -131 -165 -173 -202 -218 -229 -255 -283 -334 -339 -390 -418 -444 -455 0
-9 -33 -54 -59 -98 -124 -131 -165 -172 -203 -230 -252 -282 -325 -334 -339 -348 -391 -421 -443 0
-9 -33 -54 -59 -98 -124 -131 -165 -172 -203 -228 -254 -283 -323 -335 -338 -350 -390 -419 -445 0
-9 -33 -54 -59 -98 -124 -131 -165 -172 -203 -219 -228 -252 -282 -335 -338 -391 -421 -445 -454 0
-9 -33 -54 -59 -98 -124 -131 -165 -172 -203 -218 -230 -254 -283 -334 -339 -390 -419 -443 -455 0
-9 -32 -51 -64 -97 -121 -136 -160 -175 -204 -228 -254 -284 -326 -332 -341 -347 -389 -419 -445 0
-9 -32 -51 -64 -97 -121 -136 -160 -175 -204 -227 -255 -285 -325 -333 -340 -348 -388 -418 -446 0
-9 -32 -51 -64 -97 -121 -136 -160 -175 -204 -221 -227 -254 -284 -333 -340 -389 -419 -446 -452 0
-9 -32 -51 -64 -97 -121 -136 -160 -175 -204 -220 -228 -255 -285 -332 -341 -388 -418 -445 -453 0
-9 -31 -52 -64 -96 -122 -136 -160 -174 -205 -230 -252 -284 -324 -332 -341 -349 -389 -421 -443 0
-9 -31 -52 -64 -96 -122 -136 -160 -174 -205 -229 -253 -285 -323 -333 -340 -350 -388 -420 -444 0
-9 -31 -52 -64 -96 -122 -136 -160 -174 -205 -221 -229 -252 -284 -333 -340 -389 -421 -444 -452 0
-9 -31 -52 -64 -96 -122 -136 -160 -174 -205 -220 -230 -253 -285 -332 -341 -388 -420 -443 -453 0
-9 -29 -61 -62 -91 -133 -134 -162 -163 -210 -231 -252 -255 -292 -327 -346 -381 -418 -421 -442 0
-9 -29 -61 -62 -91 -133 -134 -162 -163 -210 -231 -251 -293 -296 -327 -346 -377 -380 -422 -442 0
-9 -29 -61 -62 -91 -133 -134 -162 -163 -210 -231 -251 -292 -323 -326 -347 -350 -381 -422 -442 0
-9 -29 -61 -62 -91 -133 -134 -162 -163 -210 -230 -252 -293 -322 -327 -346 -351 -380 -421 -443 0
-9 -29 -61 -62 -91 -133 -134 -162 -163 -210 -230 -252 -292 -297 -326 -347 -376 -381 -421 -443 0
-9 -29 -61 -62 -91 -133 -134 -162 -163 -210 -230 -251 -256 -293 -326 -347 -380 -417 -422 -443 0
-9 -29 -61 -62 -91 -133 -134 -162 -163 -210 -227 -255 -296 -322 -327 -346 -351 -377 -418 -446 0
-9 -29 -61 -62 -91 -133 -134 -162 -163 -210 -227 -255 -292 -297 -323 -350 -376 -381 -418 -446 0
-9 -29 -61 -62 -91 -133 -134 -162 -163 -210 -227 -251 -256 -296 -323 -350 -377 -417 -422 -446 0
-9 -29 -61 -62 -91 -133 -134 -162 -163 -210 -227 -230 -256 -297 -322 -351 -376 -417 -443 -446 0
-9 -29 -61 -62 -91 -133 -134 -162 -163 -210 -227 -230 -251 -292 -327 -346 -381 -422 -443 -446 0
-9 -29 -61 -62 -91 -133 -134 -162 -163 -210 -226 -256 -297 -323 -326 -347 -350 -376 -417 -447 0
-9 -29 -61 -62 -91 -133 -134 -162 -163 -210 -226 -256 -293 -296 -322 -351 -377 -380 -417 -447 0
-9 -29 -61 -62 -91 -133 -134 -162 -163 -210 -226 -252 -255 -297 -322 -351 -376 -418 -421 -447 0
-9 -29 -61 -62 -91 -133 -134 -162 -163 -210 -226 -231 -255 -296 -323 -350 -377 -418 -442 -447 0
-9 -29 -61 -62 -91 -133 -134 -162 -163 -210 -226 -231 -252 -293 -326 -347 -380 -421 -442 -447 0
-9 -29 -60 -63 -91 -132 -135 -161 -164 -210 -231 -253 -254 -292 -327 -346 -381 -419 -420 -442 0
-9 -29 -60 -63 -91 -132 -135 -161 -164 -210 -231 -251 -294 -295 -327 -346 -378 -379 -422 -442 0
-9 -29 -60 -63 -91 -132 -135 -161 -164 -210 -231 -251 -292 -324 -325 -348 -349 -381 -422 -442 0
-9 -29 -60 -63 -91 -132 -135 -161 -164 -210 -229 -253 -294 -322 -327 -346 -351 -379 -420 -444 0
-9 -29 -60 -63 -91 -132 -135 -161 -164 -210 -229 -253 -292 -297 -325 -348 -376 -381 -420 -444 0
-9 -29 -60 -63 -91 -132 -135 -161 -164 -210 -229 -251 -256 -294 -325 -348 -379 -417 -422 -444 0
-9 -29 -60 -63 -91 -132 -135 -161 -164 -210 -228 -254 -295 -322 -327 -346 -351 -378 -419 -445 0
-9 -29 -60 -63 -91 -132 -135 -161 -164 -210 -228 -254 -292 -297 -324 -349 -376 -381 -419 -445 0
-9 -29 -60 -63 -91 -132 -135 -161 -164 -210 -228 -251 -256 -295 -324 -349 -378 -417 -422 -445 0
-9 -29 -60 -63 -91 -132 -135 -161 -164 -210 -228 -229 -256 -297 -322 -351 -376 -417 -444 -445 0
-9 -29 -60 -63 -91 -132 -135 -161 -164 -210 -228 -229 -251 -292 -327 -346 -381 -422 -444 -445 0
-9 -29 -60 -63 -91 -132 -135 -161 -164 -210 -226 -256 -297 -324 -325 -348 -349 -376 -417 -447 0
-9 -29 -60 -63 -91 -132 -135 -161 -164 -210 -226 -256 -294 -295 -322 -351 -378 -379 -417 -447 0
-9 -29 -60 -63 -91 -132 -135 -161 -164 -210 -226 -253 -254 -297 -322 -351 -376 -419 -420 -447 0
-9 -29 -60 -63 -91 -132 -135 -161 -164 -210 -226 -231 -254 -295 -324 -349 -378 -419 -442 -447 0
-9 -29 -60 -63 -91 -132 -135 -161 -164 -210 -226 -231 -253 -294 -325 -348 -379 -420 -442 -447 0
-9 -29 -59 -64 -91 -131 -136 -160 -165 -210 -230 -253 -254 -293 -326 -347 -380 -419 -420 -443 0
-9 -29 -59 -64 -91 -131 -136 -160 -165 -210 -230 -252 -294 -295 -326 -347 -378 -379 -421 -443 0
-9 -29 -59 -64 -91 -131 -136 -160 -165 -210 -230 -252 -293 -324 -325 -348 -349 -380 -421 -443 0
-9 -29 -59 -64 -91 -131 -136 -160 -165 -210 -229 -253 -294 -323 -326 -347 -350 -379 -420 -444 0
-9 -29 -59 -64 -91 -131 -136 -160 -165 -210 -229 -253 -293 -296 -325 -348 -377 -380 -420 -444 0
-9 -29 -59 -64 -91 -131 -136 -160 -165 -210 -229 -252 -255 -294 -325 -348 -379 -418 -421 -444 0
-9 -29 -59 -64 -91 -131 -136 -160 -165 -210 -228 -254 -295 -323 -326 -347 -350 -378 -419 -445 0
-9 -29 -59 -64 -91 -131 -136 -160 -165 -210 -228 -254 -293 -296 -324 -349 -377 -380 -419 -445 0
-9 -29 -59 -64 -91 -131 -136 -160 -165 -210 -228 -252 -255 -295 -324 -349 -378 -418 -421 -445 0
-9 -29 -59 -64 -91 -131 -136 -160 -165 -210 -228 -229 -255 -296 -323 -350 -377 -418 -444 -445 0
-9 -29 -59 -64 -91 -131 -136 -160 -165 -210 -228 -229 -252 -293 -326 -347 -380 -421 -444 -445 0
-9 -29 -59 -64 -91 -131 -136 -160 -165 -210 -227 -255 -296 -324 -325 -348 -349 -377 -418 -446 0
-9 -29 -59 -64 -91 -131 -136 -160 -165 -210 -227 -255 -294 -295 -323 -350 -378 -379 -418 -446 0
-9 -29 -59 -64 -91 -131 -136 -160 -165 -210 -227 -253 -254 -296 -323 -350 -377 -419 -420 -446 0
-9 -29 -59 -64 -91 -131 -136 -160 -165 -210 -227 -230 -254 -295 -324 -349 -378 -419 -443 -446 0
-9 -29 -59 -64 -91 -131 -136 -160 -165 -210 -227 -230 -253 -294 -325 -348 -379 -420 -443 -446 0
-8 -39 -67 -69 -90 -113 -115 -171 -173 -206 -229 -259 -273 -277 -321 -352 -396 -400 -414 -444 0
-8 -39 -67 -69 -90 -113 -115 -171 -173 -206 -227 -261 -272 -279 -320 -353 -394 -401 -412 -446 0
-8 -39 -67 -69 -90 -113 -115 -171 -173 -206 -223 -227 -259 -272 -321 -352 -401 -414 -446 -450 0
-8 -39 -67 -69 -90 -113 -115 -171 -173 -206 -222 -229 -261 -273 -320 -353 -400 -412 -444 -451 0
-8 -38 -68 -69 -89 -114 -115 -171 -172 -207 -230 -258 -273 -278 -321 -352 -395 -400 -415 -443 0
-8 -38 -68 -69 -89 -114 -115 -171 -172 -207 -228 -260 -272 -280 -320 -353 -393 -401 -413 -445 0
-8 -38 -68 -69 -89 -114 -115 -171 -172 -207 -223 -228 -258 -272 -321 -352 -401 -415 -445 -450 0
-8 -38 -68 -69 -89 -114 -115 -171 -172 -207 -222 -230 -260 -273 -320 -353 -400 -413 -443 -451 0
-8 -37 -65 -74 -88 -111 -120 -166 -175 -208 -228 -260 -275 -277 -319 -354 -396 -398 -413 -445 0
-8 -37 -65 -74 -88 -111 -120 -166 -175 -208 -227 -261 -274 -278 -318 -355 -395 -399 -412 -446 0
-8 -37 -65 -74 -88 -111 -120 -166 -175 -208 -225 -227 -260 -274 -319 -354 -399 -413 -446 -448 0
-8 -37 -65 -74 -88 -111 -120 -166 -175 -208 -224 -228 -261 -275 -318 -355 -398 -412 -445 -449 0
-8 -36 -66 -74 -87 -112 -120 -166 -174 -209 -230 -258 -275 -279 -319 -354 -394 -398 -415 -443 0
-8 -36 -66 -74 -87 -112 -120 -166 -174 -209 -229 -259 -274 -280 -318 -355 -393 -399 -414 -444 0
-8 -36 -66 -74 -87 -112 -120 -166 -174 -209 -225 -229 -258 -274 -319 -354 -399 -415 -444 -448 0
-8 -36 -66 -74 -87 -112 -120 -166 -174 -209 -224 -230 -259 -275 -318 -355 -398 -414 -443 -449 0
-8 -35 -71 -72 -86 -117 -118 -168 -169 -210 -231 -258 -261 -276 -317 -356 -397 -412 -415 -442 0
-8 -35 -71 -72 -86 -117 -118 -168 -169 -210 -231 -257 -277 -280 -317 -356 -393 -396 -416 -442 0
-8 -35 -71 -72 -86 -117 -118 -168 -169 -210 -231 -257 -276 -313 -316 -357 -360 -397 -416 -442 0
-8 -35 -71 -72 -86 -117 -118 -168 -169 -210 -230 -258 -277 -312 -317 -356 -361 -396 -415 -443 0
-8 -35 -71 -72 -86 -117 -118 -168 -169 -210 -230 -258 -276 -281 -316 -357 -392 -397 -415 -443 0
-8 -35 -71 -72 -86 -117 -118 -168 -169 -210 -230 -257 -262 -277 -316 -357 -396 -411 -416 -443 0
-8 -35 -71 -72 -86 -117 -118 -168 -169 -210 -227 -261 -280 -312 -317 -356 -361 -393 -412 -446 0
-8 -35 -71 -72 -86 -117 -118 -168 -169 -210 -227 -261 -276 -281 -313 -360 -392 -397 -412 -446 0
-8 -35 -71 -72 -86 -117 -118 -168 -169 -210 -227 -257 -262 -280 -313 -360 -393 -411 -416 -446 0
-8 -35 -71 -72 -86 -117 -118 -168 -169 -210 -227 -230 -262 -281 -312 -361 -392 -411 -443 -446 0
-8 -35 -71 -72 -86 -117 -118 -168 -169 -210 -227 -230 -257 -276 -317 -356 -397 -416 -443 -446 0
-8 -35 -71 -72 -86 -117 -118 -168 -169 -210 -226 -262 -281 -313 -316 -357 -360 -392 -411 -447 0
-8 -35 -71 -72 -86 -117 -118 -168 -169 -210 -226 -262 -277 -280 -312 -361 -393 -396 -411 -447 0
-8 -35 -71 -72 -86 -117 -118 -168 -169 -210 -226 -258 -261 -281 -312 -361 -392 -412 -415 -447 0
-8 -35 -71 -72 -86 -117 -118 -168 -169 -210 -226 -231 -261 -280 -313 -360 -393 -412 -442 -447 0
-8 -35 -71 -72 -86 -117 -118 -168 -169 -210 -226 -231 -258 -277 -316 -357 -396 -415 -442 -447 0
-8 -35 -70 -73 -86 -116 -119 -167 -170 -210 -231 -259 -260 -276 -317 -356 -397 -413 -414 -442 0
-8 -35 -70 -73 -86 -116 -119 -167 -170 -210 -231 -257 -278 -279 -317 -356 -394 -395 -416 -442 0
-8 -35 -70 -73 -86 -116 -119 -167 -170 -210 -231 -257 -276 -314 -315 -358 -359 -397 -416 -442 0
-8 -35 -70 -73 -86 -116 -119 -167 -170 -210 -229 -259 -278 -312 -317 -356 -361 -395 -414 -444 0
-8 -35 -70 -73 -86 -116 -119 -167 -170 -210 -229 -259 -276 -281 -315 -358 -392 -397 -414 -444 0
-8 -35 -70 -73 -86 -116 -119 -167 -170 -210 -229 -257 -262 -278 -315 -358 -395 -411 -416 -444 0
-8 -35 -70 -73 -86 -116 -119 -167 -170 -210 -228 -260 -279 -312 -317 -356 -361 -394 -413 -445 0
-8 -35 -70 -73 -86 -116 -119 -167 -170 -210 -228 -260 -276 -281 -314 -359 -392 -397 -413 -445 0
-8 -35 -70 -73 -86 -116 -119 -167 -170 -210 -228 -257 -262 -279 -314 -359 -394 -411 -416 -445 0
-8 -35 -70 -73 -86 -116 -119 -167 -170 -210 -228 -229 -262 -281 -312 -361 -392 -411 -444 -445 0
-8 -35 -70 -73 -86 -116 -119 -167 -170 -210 -228 -229 -257 -276 -317 -356 -397 -416 -444 -445 0
-8 -35 -70 -73 -86 -116 -119 -167 -170 -210 -226 -262 -281 -314 -315 -358 -359 -392 -411 -447 0
-8 -35 -70 -73 -86 -116 -119 -167 -170 -210 -226 -262 -278 -279 -312 -361 -394 -395 -411 -447 0
-8 -35 -70 -73 -86 -116 -119 -167 -170 -210 -226 -259 -260 -281 -312 -361 -392 -413 -414 -447 0
-8 -35 -70 -73 -86 -116 -119 -167 -170 -210 -226 -231 -260 -279 -314 -359 -394 -413 -442 -447 0
-8 -35 -70 -73 -86 -116 -119 -167 -170 -210 -226 -231 -259 -278 -315 -358 -395 -414 -442 -447 0
-8 -35 -69 -74 -86 -115 -120 -166 -171 -210 -230 -259 -260 -277 -316 -357 -396 -413 -414 -443 0
-8 -35 -69 -74 -86 -115 -120 -166 -171 -210 -230 -258 -278 -279 -316 -357 -394 -395 -415 -443 0
-8 -35 -69 -74 -86 -115 -120 -166 -171 -210 -230 -258 -277 -314 -315 -358 -359 -396 -415 -443 0
-8 -35 -69 -74 -86 -115 -120 -166 -171 -210 -229 -259 -278 -313 -316 -357 -360 -395 -414 -444 0
-8 -35 -69 -74 -86 -115 -120 -166 -171 -210 -229 -259 -277 -280 -315 -358 -393 -396 -414 -444 0
-8 -35 -69 -74 -86 -115 -120 -166 -171 -210 -229 -258 -261 -278 -315 -358 -395 -412 -415 -444 0
-8 -35 -69 -74 -86 -115 -120 -166 -171 -210 -228 -260 -279 -313 -316 -357 -360 -394 -413 -445 0
-8 -35 -69 -74 -86 -115 -120 -166 -171 -210 -228 -260 -277 -280 -314 -359 -393 -396 -413 -445 0
-8 -35 -69 -74 -86 -115 -120 -166 -171 -210 -228 -258 -261 -279 -314 -359 -394 -412 -415 -445 0
-8 -35 -69 -74 -86 -115 -120 -166 -171 -210 -228 -229 -261 -280 -313 -360 -393 -412 -444 -445 0
-8 -35 -69 -74 -86 -115 -120 -166 -171 -210 -228 -229 -258 -277 -316 -357 -396 -415 -444 -445 0
-8 -35 -69 -74 -86 -115 -120 -166 -171 -210 -227 -261 -280 -314 -315 -358 -359 -393 -412 -446 0
-8 -35 -69 -74 -86 -115 -120 -166 -171 -210 -227 -261 -278 -279 -313 -360 -394 -395 -412 -446 0
-8 -35 -69 -74 -86 -115 -120 -166 -171 -210 -227 -259 -260 -280 -313 -360 -393 -413 -414 -446 0
-8 -35 -69 -74 -86 -115 -120 -166 -171 -210 -227 -230 -260 -279 -314 -359 -394 -413 -443 -446 0
-8 -35 -69 -74 -86 -115 -120 -166 -171 -210 -227 -230 -259 -278 -315 -358 -395 -414 -443 -446 0
-8 -34 -57 -59 -95 -123 -125 -171 -173 -206 -229 -259 -282 -326 -330 -343 -347 -391 -414 -444 0
-8 -34 -57 -59 -95 -123 -125 -171 -173 -206 -227 -261 -283 -324 -331 -342 -349 -390 -412 -446 0
-8 -34 -57 -59 -95 -123 -125 -171 -173 -206 -223 -227 -259 -282 -331 -342 -391 -414 -446 -450 0
-8 -34 -57 -59 -95 -123 -125 -171 -173 -206 -222 -229 -261 -283 -330 -343 -390 -412 -444 -451 0
-8 -33 -58 -59 -94 -124 -125 -171 -172 -207 -230 -258 -282 -325 -330 -343 -348 -391 -415 -443 0
-8 -33 -58 -59 -94 -124 -125 -171 -172 -207 -228 -260 -283 -323 -331 -342 -350 -390 -413 -445 0
-8 -33 -58 -59 -94 -124 -125 -171 -172 -207 -223 -228 -258 -282 -331 -342 -391 -415 -445 -450 0
-8 -33 -58 -59 -94 -124 -125 -171 -172 -207 -222 -230 -260 -283 -330 -343 -390 -413 -443 -451 0
-8 -32 -55 -64 -93 -121 -130 -166 -175 -208 -228 -260 -284 -326 -328 -345 -347 -389 -413 -445 0
-8 -32 -55 -64 -93 -121 -130 -166 -175 -208 -227 -261 -285 -325 -329 -344 -348 -388 -412 -446 0
-8 -32 -55 -64 -93 -121 -130 -166 -175 -208 -225 -227 -260 -284 -329 -344 -389 -413 -446 -448 0
-8 -32 -55 -64 -93 -121 -130 -166 -175 -208 -224 -228 -261 -285 -328 -345 -388 -412 -445 -449 0
-8 -31 -56 -64 -92 -122 -130 -166 -174 -209 -230 -258 -284 -324 -328 -345 -349 -389 -415 -443 0
-8 -31 -56 -64 -92 -122 -130 -166 -174 -209 -229 -259 -285 -323 -329 -344 -350 -388 -414 -444 0
-8 -31 -56 -64 -92 -122 -130 -166 -174 -209 -225 -229 -258 -284 -329 -344 -389 -415 -444 -448 0
-8 -31 -56 -64 -92 -122 -130 -166 -174 -209 -224 -230 -259 -285 -328 -345 -388 -414 -443 -449 0
-8 -30 -61 -62 -91 -127 -128 -168 -169 -210 -231 -258 -261 -286 -327 -346 -387 -412 -415 -442 0
-8 -30 -61 -62 -91 -127 -128 -168 -169 -210 -231 -257 -287 -290 -327 -346 -383 -386 -416 -442 0
-8 -30 -61 -62 -91 -127 -128 -168 -169 -210 -231 -257 -286 -323 -326 -347 -350 -387 -416 -442 0
-8 -30 -61 -62 -91 -127 -128 -168 -169 -210 -230 -258 -287 -322 -327 -346 -351 -386 -415 -443 0
-8 -30 -61 -62 -91 -127 -128 -168 -169 -210 -230 -258 -286 -291 -326 -347 -382 -387 -415 -443 0
-8 -30 -61 -62 -91 -127 -128 -168 -169 -210 -230 -257 -262 -287 -326 -347 -386 -411 -416 -443 0
-8 -30 -61 -62 -91 -127 -128 -168 -169 -210 -227 -261 -290 -322 -327 -346 -351 -383 -412 -446 0
-8 -30 -61 -62 -91 -127 -128 -168 -169 -210 -227 -261 -286 -291 -323 -350 -382 -387 -412 -446 0
-8 -30 -61 -62 -91 -127 -128 -168 -169 -210 -227 -257 -262 -290 -323 -350 -383 -411 -416 -446 0
-8 -30 -61 -62 -91 -127 -128 -168 -169 -210 -227 -230 -262 -291 -322 -351 -382 -411 -443 -446 0
-8 -30 -61 -62 -91 -127 -128 -168 -169 -210 -227 -230 -257 -286 -327 -346 -387 -416 -443 -446 0
-8 -30 -61 -62 -91 -127 -128 -168 -169 -210 -226 -262 -291 -323 -326 -347 -350 -382 -411 -447 0
-8 -30 -61 -62 -91 -127 -128 -168 -169 -210 -226 -262 -287 -290 -322 -351 -383 -386 -411 -447 0
-8 -30 -61 -62 -91 -127 -128 -168 -169 -210 -226 -258 -261 -291 -322 -351 -382 -412 -415 -447 0
-8 -30 -61 -62 -91 -127 -128 -168 -169 -210 -226 -231 -261 -290 -323 -350 -383 -412 -442 -447 0
-8 -30 -61 -62 -91 -127 -128 -168 -169 -210 -226 -231 -258 -287 -326 -347 -386 -415 -442 -447 0
-8 -30 -60 -63 -91 -126 -129 -167 -170 -210 -231 -259 -260 -286 -327 -346 -387 -413 -414 -442 0
-8 -30 -60 -63 -91 -126 -129 -167 -170 -210 -231 -257 -288 -289 -327 -346 -384 -385 -416 -442 0
-8 -30 -60 -63 -91 -126 -129 -167 -170 -210 -231 -257 -286 -324 -325 -348 -349 -387 -416 -442 0
-8 -30 -60 -63 -91 -126 -129 -167 -170 -210 -229 -259 -288 -322 -327 -346 -351 -385 -414 -444 0
-8 -30 -60 -63 -91 -126 -129 -167 -170 -210 -229 -259 -286 -291 -325 -348 -382 -387 -414 -444 0
-8 -30 -60 -63 -91 -126 -129 -167 -170 -210 -229 -257 -262 -288 -325 -348 -385 -411 -416 -444 0
-8 -30 -60 -63 -91 -126 -129 -167 -170 -210 -228 -260 -289 -322 -327 -346 -351 -384 -413 -445 0
-8 -30 -60 -63 -91 -126 -129 -167 -170 -210 -228 -260 -286 -291 -324 -349 -382 -387 -413 -445 0
-8 -30 -60 -63 -91 -126 -129 -167 -170 -210 -228 -257 -262 -289 -324 -349 -384 -411 -416 -445 0
-8 -30 -60 -63 -91 -126 -129 -167 -170 -210 -228 -229 -262 -291 -322 -351 -382 -411 -444 -445 0
-8 -30 -60 -63 -91 -126 -129 -167 -170 -210 -228 -229 -257 -286 -327 -346 -387 -416 -444 -445 0
-8 -30 -60 -63 -91 -126 -129 -167 -170 -210 -226 -262 -291 -324 -325 -348 -349 -382 -411 -447 0
-8 -30 -60 -63 -91 -126 -129 -167 -170 -210 -226 -262 -288 -289 -322 -351 -384 -385 -411 -447 0
-8 -30 -60 -63 -91 -126 -129 -167 -170 -210 -226 -259 -260 -291 -322 -351 -382 -413 -414 -447 0
-8 -30 -60 -63 -91 -126 -129 -167 -170 -210 -226 -231 -260 -289 -324 -349 -384 -413 -442 -447 0
-8 -30 -60 -63 -91 -126 -129 -167 -170 -210 -226 -231 -259 -288 -325 -348 -385 -414 -442 -447 0
-8 -30 -59 -64 -91 -125 -130 -166 -171 -210 -230 -259 -260 -287 -326 -347 -386 -413 -414 -443 0
-8 -30 -59 -64 -91 -125 -130 -166 -171 -210 -230 -258 -288 -289 -326 -347 -384 -385 -415 -443 0
-8 -30 -59 -64 -91 -125 -130 -166 -171 -210 -230 -258 -287 -324 -325 -348 -349 -386 -415 -443 0
-8 -30 -59 -64 -91 -125 -130 -166 -171 -210 -229 -259 -288 -323 -326 -347 -350 -385 -414 -444 0
-8 -30 -59 -64 -91 -125 -130 -166 -171 -210 -229 -259 -287 -290 -325 -348 -383 -386 -414 -444 0
-8 -30 -59 -64 -91 -125 -130 -166 -171 -210 -229 -258 -261 -288 -325 -348 -385 -412 -415 -444 0
-8 -30 -59 -64 -91 -125 -130 -166 -171 -210 -228 -260 -289 -323 -326 -347 -350 -384 -413 -445 0
-8 -30 -59 -64 -91 -125 -130 -166 -171 -210 -228 -260 -287 -290 -324 -349 -383 -386 -413 -445 0
-8 -30 -59 -64 -91 -125 -130 -166 -171 -210 -228 -258 -261 -289 -324 -349 -384 -412 -415 -445 0
-8 -30 -59 -64 -91 -125 -130 -166 -171 -210 -228 -229 -261 -290 -323 -350 -383 -412 -444 -445 0
-8 -30 -59 -64 -91 -125 -130 -166 -171 -210 -228 -229 -258 -287 -326 -347 -386 -415 -444 -445 0
-8 -30 -59 -64 -91 -125 -130 -166 -171 -210 -227 -261 -290 -324 -325 -348 -349 -383 -412 -446 0
-8 -30 -59 -64 -91 -125 -130 -166 -171 -210 -227 -261 -288 -289 -323 -350 -384 -385 -412 -446 0
-8 -30 -59 -64 -91 -125 -130 -166 -171 -210 -227 -259 -260 -290 -323 -350 -383 -413 -414 -446 0
-8 -30 -59 -64 -91 -125 -130 -166 -171 -210 -227 -230 -260 -289 -324 -349 -384 -413 -443 -446 0
-8 -30 -59 -64 -91 -125 -130 -166 -171 -210 -227 -230 -259 -288 -325 -348 -385 -414 -443 -446 0
-7 -64 -73 -77 -89 -93 -96 -183 -187 -196 -241 -252 -260 -267 -298 -375 -406 -413 -421 -432 0
-7 -64 -73 -77 -89 -93 -96 -183 -187 -196 -241 -249 -268 -273 -298 -375 -400 -405 -424 -432 0
-7 -64 -73 -77 -89 -93 -96 -183 -187 -196 -241 -249 -267 -287 -295 -378 -386 -406 -424 -432 0
-7 -64 -73 -77 -89 -93 -96 -183 -187 -196 -238 -252 -268 -284 -298 -375 -389 -405 -421 -435 0
-7 -64 -73 -77 -89 -93 -96 -183 -187 -196 -238 -252 -267 -276 -295 -378 -397 -406 -421 -435 0
-7 -64 -73 -77 -89 -93 -96 -183 -187 -196 -238 -249 -263 -268 -295 -378 -405 -410 -424 -435 0
-7 -64 -73 -77 -89 -93 -96 -183 -187 -196 -233 -260 -273 -284 -298 -375 -389 -400 -413 -440 0
-7 -64 -73 -77 -89 -93 -96 -183 -187 -196 -233 -260 -267 -276 -287 -386 -397 -406 -413 -440 0
-7 -64 -73 -77 -89 -93 -96 -183 -187 -196 -233 -249 -263 -273 -287 -386 -400 -410 -424 -440 0
-7 -64 -73 -77 -89 -93 -96 -183 -187 -196 -233 -238 -263 -276 -284 -389 -397 -410 -435 -440 0
-7 -64 -73 -77 -89 -93 -96 -183 -187 -196 -233 -238 -249 -267 -298 -375 -406 -424 -435 -440 0
-7 -64 -73 -77 -89 -93 -96 -183 -187 -196 -232 -263 -276 -287 -295 -378 -386 -397 -410 -441 0
-7 -64 -73 -77 -89 -93 -96 -183 -187 -196 -232 -263 -268 -273 -284 -389 -400 -405 -410 -441 0
-7 -64 -73 -77 -89 -93 -96 -183 -187 -196 -232 -252 -260 -276 -284 -389 -397 -413 -421 -441 0
-7 -64 -73 -77 -89 -93 -96 -183 -187 -196 -232 -241 -260 -273 -287 -386 -400 -413 -432 -441 0
-7 -64 -73 -77 -89 -93 -96 -183 -187 -196 -232 -241 -252 -268 -295 -378 -405 -421 -432 -441 0
-7 -64 -71 -79 -89 -92 -97 -181 -189 -196 -241 -254 -258 -267 -298 -375 -406 -415 -419 -432 0
-7 -64 -71 -79 -89 -92 -97 -181 -189 -196 -241 -249 -269 -272 -298 -375 -401 -404 -424 -432 0
-7 -64 -71 -79 -89 -92 -97 -181 -189 -196 -241 -249 -267 -289 -293 -380 -384 -406 -424 -432 0
-7 -64 -71 -79 -89 -92 -97 -181 -189 -196 -237 -254 -269 -284 -298 -375 -389 -404 -419 -436 0
-7 -64 -71 -79 -89 -92 -97 -181 -189 -196 -237 -254 -267 -276 -293 -380 -397 -406 -419 -436 0
-7 -64 -71 -79 -89 -92 -97 -181 -189 -196 -237 -249 -263 -269 -293 -380 -404 -410 -424 -436 0
-7 -64 -71 -79 -89 -92 -97 -181 -189 -196 -234 -258 -272 -284 -298 -375 -389 -401 -415 -439 0
-7 -64 -71 -79 -89 -92 -97 -181 -189 -196 -234 -258 -267 -276 -289 -384 -397 -406 -415 -439 0
-7 -64 -71 -79 -89 -92 -97 -181 -189 -196 -234 -249 -263 -272 -289 -384 -401 -410 -424 -439 0
-7 -64 -71 -79 -89 -92 -97 -181 -189 -196 -234 -237 -263 -276 -284 -389 -397 -410 -436 -439 0
-7 -64 -71 -79 -89 -92 -97 -181 -189 -196 -234 -237 -249 -267 -298 -375 -406 -424 -436 -439 0
-7 -64 -71 -79 -89 -92 -97 -181 -189 -196 -232 -263 -276 -289 -293 -380 -384 -397 -410 -441 0
-7 -64 -71 -79 -89 -92 -97 -181 -189 -196 -232 -263 -269 -272 -284 -389 -401 -404 -410 -441 0
-7 -64 -71 -79 -89 -92 -97 -181 -189 -196 -232 -254 -258 -276 -284 -389 -397 -415 -419 -441 0
-7 -64 -71 -79 -89 -92 -97 -181 -189 -196 -232 -241 -258 -272 -289 -384 -401 -415 -432 -441 0
-7 -64 -71 -79 -89 -92 -97 -181 -189 -196 -232 -241 -254 -269 -293 -380 -404 -419 -432 -441 0
-7 -64 -68 -82 -89 -91 -100 -178 -192 -196 -238 -254 -258 -268 -295 -378 -405 -415 -419 -435 0
-7 -64 -68 -82 -89 -91 -100 -178 -192 -196 -238 -252 -269 -272 -295 -378 -401 -404 -421 -435 0
-7 -64 -68 -82 -89 -91 -100 -178 -192 -196 -238 -252 -268 -289 -293 -380 -384 -405 -421 -435 0
-7 -64 -68 -82 -89 -91 -100 -178 -192 -196 -237 -254 -269 -287 -295 -378 -386 -404 -419 -436 0
-7 -64 -68 -82 -89 -91 -100 -178 -192 -196 -237 -254 -268 -273 -293 -380 -400 -405 -419 -436 0
-7 -64 -68 -82 -89 -91 -100 -178 -192 -196 -237 -252 -260 -269 -293 -380 -404 -413 -421 -436 0
-7 -64 -68 -82 -89 -91 -100 -178 -192 -196 -234 -258 -272 -287 -295 -378 -386 -401 -415 -439 0
-7 -64 -68 -82 -89 -91 -100 -178 -192 -196 -234 -258 -268 -273 -289 -384 -400 -405 -415 -439 0
-7 -64 -68 -82 -89 -91 -100 -178 -192 -196 -234 -252 -260 -272 -289 -384 -401 -413 -421 -439 0
-7 -64 -68 -82 -89 -91 -100 -178 -192 -196 -234 -237 -260 -273 -287 -386 -400 -413 -436 -439 0
-7 -64 -68 -82 -89 -91 -100 -178 -192 -196 -234 -237 -252 -268 -295 -378 -405 -421 -436 -439 0
-7 -64 -68 -82 -89 -91 -100 -178 -192 -196 -233 -260 -273 -289 -293 -380 -384 -400 -413 -440 0
-7 -64 -68 -82 -89 -91 -100 -178 -192 -196 -233 -260 -269 -272 -287 -386 -401 -404 -413 -440 0
-7 -64 -68 -82 -89 -91 -100 -178 -192 -196 -233 -254 -258 -273 -287 -386 -400 -415 -419 -440 0
-7 -64 -68 -82 -89 -91 -100 -178 -192 -196 -233 -238 -258 -272 -289 -384 -401 -415 -435 -440 0
-7 -64 -68 -82 -89 -91 -100 -178 -192 -196 -233 -238 -254 -269 -293 -380 -404 -419 -435 -440 0
-7 -63 -68 -83 -88 -91 -101 -177 -192 -197 -237 -254 -268 -274 -292 -381 -399 -405 -419 -436 0
-7 -63 -68 -83 -88 -91 -101 -177 -192 -197 -235 -237 -260 -274 -286 -387 -399 -413 -436 -438 0
-7 -63 -68 -83 -88 -91 -101 -177 -192 -197 -233 -260 -270 -272 -286 -387 -401 -403 -413 -440 0
-7 -63 -68 -83 -88 -91 -101 -177 -192 -197 -233 -239 -254 -270 -292 -381 -403 -419 -434 -440 0
-7 -61 -68 -84 -87 -91 -103 -176 -192 -199 -238 -252 -269 -274 -292 -381 -399 -404 -421 -435 0
-7 -61 -68 -84 -87 -91 -103 -176 -192 -199 -235 -238 -258 -274 -286 -387 -399 -415 -435 -438 0
-7 -61 -68 -84 -87 -91 -103 -176 -192 -199 -234 -258 -270 -273 -286 -387 -400 -403 -415 -439 0
-7 -61 -68 -84 -87 -91 -103 -176 -192 -199 -234 -239 -252 -270 -292 -381 -403 -421 -434 -439 0
-7 -58 -74 -82 -86 -94 -100 -178 -186 -202 -234 -258 -268 -279 -283 -390 -394 -405 -415 -439 0
-7 -58 -74 -82 -86 -94 -100 -178 -186 -202 -234 -242 -260 -279 -282 -391 -394 -413 -431 -439 0
-7 -58 -74 -82 -86 -94 -100 -178 -186 -202 -233 -260 -269 -277 -282 -391 -396 -404 -413 -440 0
-7 -58 -74 -82 -86 -94 -100 -178 -186 -202 -233 -244 -258 -277 -283 -390 -396 -415 -429 -440 0
-7 -54 -80 -82 -85 -98 -100 -178 -180 -206 -238 -252 -272 -279 -283 -390 -394 -401 -421 -435 0
-7 -54 -80 -82 -85 -98 -100 -178 -180 -206 -238 -242 -254 -279 -282 -391 -394 -419 -431 -435 0
-7 -54 -80 -82 -85 -98 -100 -178 -180 -206 -237 -254 -273 -277 -282 -391 -396 -400 -419 -436 0
-7 -54 -80 -82 -85 -98 -100 -178 -180 -206 -237 -244 -252 -277 -283 -390 -396 -421 -429 -436 0
-7 -33 -37 -40 -120 -129 -133 -183 -187 -196 -241 -252 -260 -305 -336 -337 -368 -413 -421 -432 0
-7 -33 -37 -40 -120 -129 -133 -183 -187 -196 -241 -249 -308 -316 -336 -337 -357 -365 -424 -432 0
-7 -33 -37 -40 -120 -129 -133 -183 -187 -196 -241 -249 -305 -330 -335 -338 -343 -368 -424 -432 0
-7 -33 -37 -40 -120 -129 -133 -183 -187 -196 -238 -252 -308 -327 -336 -337 -346 -365 -421 -435 0
-7 -33 -37 -40 -120 -129 -133 -183 -187 -196 -238 -252 -305 -319 -335 -338 -354 -368 -421 -435 0
-7 -33 -37 -40 -120 -129 -133 -183 -187 -196 -238 -249 -263 -308 -335 -338 -365 -410 -424 -435 0
-7 -33 -37 -40 -120 -129 -133 -183 -187 -196 -233 -260 -316 -327 -336 -337 -346 -357 -413 -440 0
-7 -33 -37 -40 -120 -129 -133 -183 -187 -196 -233 -260 -305 -319 -330 -343 -354 -368 -413 -440 0
-7 -33 -37 -40 -120 -129 -133 -183 -187 -196 -233 -249 -263 -316 -330 -343 -357 -410 -424 -440 0
-7 -33 -37 -40 -120 -129 -133 -183 -187 -196 -233 -238 -263 -319 -327 -346 -354 -410 -435 -440 0
-7 -33 -37 -40 -120 -129 -133 -183 -187 -196 -233 -238 -249 -305 -336 -337 -368 -424 -435 -440 0
-7 -33 -37 -40 -120 -129 -133 -183 -187 -196 -232 -263 -319 -330 -335 -338 -343 -354 -410 -441 0
-7 -33 -37 -40 -120 -129 -133 -183 -187 -196 -232 -263 -308 -316 -327 -346 -357 -365 -410 -441 0
-7 -33 -37 -40 -120 -129 -133 -183 -187 -196 -232 -252 -260 -319 -327 -346 -354 -413 -421 -441 0
-7 -33 -37 -40 -120 -129 -133 -183 -187 -196 -232 -241 -260 -316 -330 -343 -357 -413 -432 -441 0
-7 -33 -37 -40 -120 -129 -133 -183 -187 -196 -232 -241 -252 -308 -335 -338 -365 -421 -432 -441 0
-7 -33 -36 -41 -120 -127 -135 -181 -189 -196 -241 -254 -258 -305 -336 -337 -368 -415 -419 -432 0
-7 -33 -36 -41 -120 -127 -135 -181 -189 -196 -241 -249 -310 -314 -336 -337 -359 -363 -424 -432 0
-7 -33 -36 -41 -120 -127 -135 -181 -189 -196 -241 -249 -305 -331 -334 -339 -342 -368 -424 -432 0
-7 -33 -36 -41 -120 -127 -135 -181 -189 -196 -237 -254 -310 -327 -336 -337 -346 -363 -419 -436 0
-7 -33 -36 -41 -120 -127 -135 -181 -189 -196 -237 -254 -305 -319 -334 -339 -354 -368 -419 -436 0
-7 -33 -36 -41 -120 -127 -135 -181 -189 -196 -237 -249 -263 -310 -334 -339 -363 -410 -424 -436 0
-7 -33 -36 -41 -120 -127 -135 -181 -189 -196 -234 -258 -314 -327 -336 -337 -346 -359 -415 -439 0
-7 -33 -36 -41 -120 -127 -135 -181 -189 -196 -234 -258 -305 -319 -331 -342 -354 -368 -415 -439 0
-7 -33 -36 -41 -120 -127 -135 -181 -189 -196 -234 -249 -263 -314 -331 -342 -359 -410 -424 -439 0
-7 -33 -36 -41 -120 -127 -135 -181 -189 -196 -234 -237 -263 -319 -327 -346 -354 -410 -436 -439 0
-7 -33 -36 -41 -120 -127 -135 -181 -189 -196 -234 -237 -249 -305 -336 -337 -368 -424 -436 -439 0
-7 -33 -36 -41 -120 -127 -135 -181 -189 -196 -232 -263 -319 -331 -334 -339 -342 -354 -410 -441 0
-7 -33 -36 -41 -120 -127 -135 -181 -189 -196 -232 -263 -310 -314 -327 -346 -359 -363 -410 -441 0
-7 -33 -36 -41 -120 -127 -135 -181 -189 -196 -232 -254 -258 -319 -327 -346 -354 -415 -419 -441 0
-7 -33 -36 -41 -120 -127 -135 -181 -189 -196 -232 -241 -258 -314 -331 -342 -359 -415 -432 -441 0
-7 -33 -36 -41 -120 -127 -135 -181 -189 -196 -232 -241 -254 -310 -334 -339 -363 -419 -432 -441 0
-7 -33 -35 -44 -120 -124 -138 -178 -192 -196 -238 -254 -258 -308 -335 -338 -365 -415 -419 -435 0
-7 -33 -35 -44 -120 -124 -138 -178 -192 -196 -238 -252 -310 -314 -335 -338 -359 -363 -421 -435 0
-7 -33 -35 -44 -120 -124 -138 -178 -192 -196 -238 -252 -308 -331 -334 -339 -342 -365 -421 -435 0
-7 -33 -35 -44 -120 -124 -138 -178 -192 -196 -237 -254 -310 -330 -335 -338 -343 -363 -419 -436 0
-7 -33 -35 -44 -120 -124 -138 -178 -192 -196 -237 -254 -308 -316 -334 -339 -357 -365 -419 -436 0
-7 -33 -35 -44 -120 -124 -138 -178 -192 -196 -237 -252 -260 -310 -334 -339 -363 -413 -421 -436 0
-7 -33 -35 -44 -120 -124 -138 -178 -192 -196 -234 -258 -314 -330 -335 -338 -343 -359 -415 -439 0
-7 -33 -35 -44 -120 -124 -138 -178 -192 -196 -234 -258 -308 -316 -331 -342 -357 -365 -415 -439 0
-7 -33 -35 -44 -120 -124 -138 -178 -192 -196 -234 -252 -260 -314 -331 -342 -359 -413 -421 -439 0
-7 -33 -35 -44 -120 -124 -138 -178 -192 -196 -234 -237 -260 -316 -330 -343 -357 -413 -436 -439 0
-7 -33 -35 -44 -120 -124 -138 -178 -192 -196 -234 -237 -252 -308 -335 -338 -365 -421 -436 -439 0
-7 -33 -35 -44 -120 -124 -138 -178 -192 -196 -233 -260 -316 -331 -334 -339 -342 -357 -413 -440 0
-7 -33 -35 -44 -120 -124 -138 -178 -192 -196 -233 -260 -310 -314 -330 -343 -359 -363 -413 -440 0
-7 -33 -35 -44 -120 -124 -138 -178 -192 -196 -233 -254 -258 -316 -330 -343 -357 -415 -419 -440 0
-7 -33 -35 -44 -120 -124 -138 -178 -192 -196 -233 -238 -258 -314 -331 -342 -359 -415 -435 -440 0
-7 -33 -35 -44 -120 -124 -138 -178 -192 -196 -233 -238 -254 -310 -334 -339 -363 -419 -435 -440 0
-7 -32 -35 -45 -119 -124 -139 -177 -192 -197 -237 -254 -311 -329 -335 -338 -344 -362 -419 -436 0
-7 -32 -35 -45 -119 -124 -139 -177 -192 -197 -235 -237 -260 -317 -329 -344 -356 -413 -436 -438 0
-7 -32 -35 -45 -119 -124 -139 -177 -192 -197 -233 -260 -317 -331 -333 -340 -342 -356 -413 -440 0
-7 -32 -35 -45 -119 -124 -139 -177 -192 -197 -233 -239 -254 -311 -333 -340 -362 -419 -434 -440 0
-7 -31 -35 -47 -117 -124 -140 -176 -192 -199 -238 -252 -311 -329 -334 -339 -344 -362 -421 -435 0
-7 -31 -35 -47 -117 -124 -140 -176 -192 -199 -235 -238 -258 -317 -329 -344 -356 -415 -435 -438 0
-7 -31 -35 -47 -117 -124 -140 -176 -192 -199 -234 -258 -317 -330 -333 -340 -343 -356 -415 -439 0
-7 -31 -35 -47 -117 -124 -140 -176 -192 -199 -234 -239 -252 -311 -333 -340 -362 -421 -434 -439 0
-7 -30 -38 -44 -114 -130 -138 -178 -186 -202 -234 -258 -320 -324 -335 -338 -349 -353 -415 -439 0
-7 -30 -38 -44 -114 -130 -138 -178 -186 -202 -234 -242 -260 -321 -324 -349 -352 -413 -431 -439 0
-7 -30 -38 -44 -114 -130 -138 -178 -186 -202 -233 -260 -321 -326 -334 -339 -347 -352 -413 -440 0
-7 -30 -38 -44 -114 -130 -138 -178 -186 -202 -233 -244 -258 -320 -326 -347 -353 -415 -429 -440 0
-7 -29 -42 -44 -110 -136 -138 -178 -180 -206 -238 -252 -320 -324 -331 -342 -349 -353 -421 -435 0
-7 -29 -42 -44 -110 -136 -138 -178 -180 -206 -238 -242 -254 -321 -324 -349 -352 -419 -431 -435 0
-7 -29 -42 -44 -110 -136 -138 -178 -180 -206 -237 -254 -321 -326 -330 -343 -347 -352 -419 -436 0
-7 -29 -42 -44 -110 -136 -138 -178 -180 -206 -237 -244 -252 -320 -326 -347 -353 -421 -429 -436 0
-7 -12 -16 -19 -155 -164 -168 -183 -187 -196 -276 -287 -295 -305 -336 -337 -368 -378 -386 -397 0
-7 -12 -16 -19 -155 -164 -168 -183 -187 -196 -276 -284 -308 -316 -336 -337 -357 -365 -389 -397 0
-7 -12 -16 -19 -155 -164 -168 -183 -187 -196 -276 -284 -305 -330 -335 -338 -343 -368 -389 -397 0
-7 -12 -16 -19 -155 -164 -168 -183 -187 -196 -273 -287 -308 -327 -336 -337 -346 -365 -386 -400 0
-7 -12 -16 -19 -155 -164 -168 -183 -187 -196 -273 -287 -305 -319 -335 -338 -354 -368 -386 -400 0
-7 -12 -16 -19 -155 -164 -168 -183 -187 -196 -273 -284 -298 -308 -335 -338 -365 -375 -389 -400 0
-7 -12 -16 -19 -155 -164 -168 -183 -187 -196 -268 -295 -316 -327 -336 -337 -346 -357 -378 -405 0
-7 -12 -16 -19 -155 -164 -168 -183 -187 -196 -268 -295 -305 -319 -330 -343 -354 -368 -378 -405 0
-7 -12 -16 -19 -155 -164 -168 -183 -187 -196 -268 -284 -298 -316 -330 -343 -357 -375 -389 -405 0
-7 -12 -16 -19 -155 -164 -168 -183 -187 -196 -268 -273 -298 -319 -327 -346 -354 -375 -400 -405 0
-7 -12 -16 -19 -155 -164 -168 -183 -187 -196 -268 -273 -284 -305 -336 -337 -368 -389 -400 -405 0
-7 -12 -16 -19 -155 -164 -168 -183 -187 -196 -267 -298 -319 -330 -335 -338 -343 -354 -375 -406 0
-7 -12 -16 -19 -155 -164 -168 -183 -187 -196 -267 -298 -308 -316 -327 -346 -357 -365 -375 -406 0
-7 -12 -16 -19 -155 -164 -168 -183 -187 -196 -267 -287 -295 -319 -327 -346 -354 -378 -386 -406 0
-7 -12 -16 -19 -155 -164 -168 -183 -187 -196 -267 -276 -295 -316 -330 -343 -357 -378 -397 -406 0
-7 -12 -16 -19 -155 -164 -168 -183 -187 -196 -267 -276 -287 -308 -335 -338 -365 -386 -397 -406 0
-7 -12 -15 -20 -155 -162 -170 -181 -189 -196 -276 -289 -293 -305 -336 -337 -368 -380 -384 -397 0
-7 -12 -15 -20 -155 -162 -170 -181 -189 -196 -276 -284 -310 -314 -336 -337 -359 -363 -389 -397 0
-7 -12 -15 -20 -155 -162 -170 -181 -189 -196 -276 -284 -305 -331 -334 -339 -342 -368 -389 -397 0
-7 -12 -15 -20 -155 -162 -170 -181 -189 -196 -272 -289 -310 -327 -336 -337 -346 -363 -384 -401 0
-7 -12 -15 -20 -155 -162 -170 -181 -189 -196 -272 -289 -305 -319 -334 -339 -354 -368 -384 -401 0
-7 -12 -15 -20 -155 -162 -170 -181 -189 -196 -272 -284 -298 -310 -334 -339 -363 -375 -389 -401 0
-7 -12 -15 -20 -155 -162 -170 -181 -189 -196 -269 -293 -314 -327 -336 -337 -346 -359 -380 -404 0
-7 -12 -15 -20 -155 -162 -170 -181 -189 -196 -269 -293 -305 -319 -331 -342 -354 -368 -380 -404 0
-7 -12 -15 -20 -155 -162 -170 -181 -189 -196 -269 -284 -298 -314 -331 -342 -359 -375 -389 -404 0
-7 -12 -15 -20 -155 -162 -170 -181 -189 -196 -269 -272 -298 -319 -327 -346 -354 -375 -401 -404 0
-7 -12 -15 -20 -155 -162 -170 -181 -189 -196 -269 -272 -284 -305 -336 -337 -368 -389 -401 -404 0
-7 -12 -15 -20 -155 -162 -170 -181 -189 -196 -267 -298 -319 -331 -334 -339 -342 -354 -375 -406 0
-7 -12 -15 -20 -155 -162 -170 -181 -189 -196 -267 -298 -310 -314 -327 -346 -359 -363 -375 -406 0
-7 -12 -15 -20 -155 -162 -170 -181 -189 -196 -267 -289 -293 -319 -327 -346 -354 -380 -384 -406 0
-7 -12 -15 -20 -155 -162 -170 -181 -189 -196 -267 -276 -293 -314 -331 -342 -359 -380 -397 -406 0
-7 -12 -15 -20 -155 -162 -170 -181 -189 -196 -267 -276 -289 -310 -334 -339 -363 -384 -397 -406 0
-7 -12 -14 -23 -155 -159 -173 -178 -192 -196 -273 -289 -293 -308 -335 -338 -365 -380 -384 -400 0
-7 -12 -14 -23 -155 -159 -173 -178 -192 -196 -273 -287 -310 -314 -335 -338 -359 -363 -386 -400 0
-7 -12 -14 -23 -155 -159 -173 -178 -192 -196 -273 -287 -308 -331 -334 -339 -342 -365 -386 -400 0
-7 -12 -14 -23 -155 -159 -173 -178 -192 -196 -272 -289 -310 -330 -335 -338 -343 -363 -384 -401 0
-7 -12 -14 -23 -155 -159 -173 -178 -192 -196 -272 -289 -308 -316 -334 -339 -357 -365 -384 -401 0
-7 -12 -14 -23 -155 -159 -173 -178 -192 -196 -272 -287 -295 -310 -334 -339 -363 -378 -386 -401 0
-7 -12 -14 -23 -155 -159 -173 -178 -192 -196 -269 -293 -314 -330 -335 -338 -343 -359 -380 -404 0
-7 -12 -14 -23 -155 -159 -173 -178 -192 -196 -269 -293 -308 -316 -331 -342 -357 -365 -380 -404 0
-7 -12 -14 -23 -155 -159 -173 -178 -192 -196 -269 -287 -295 -314 -331 -342 -359 -378 -386 -404 0
-7 -12 -14 -23 -155 -159 -173 -178 -192 -196 -269 -272 -295 -316 -330 -343 -357 -378 -401 -404 0
-7 -12 -14 -23 -155 -159 -173 -178 -192 -196 -269 -272 -287 -308 -335 -338 -365 -386 -401 -404 0
-7 -12 -14 -23 -155 -159 -173 -178 -192 -196 -268 -295 -316 -331 -334 -339 -342 -357 -378 -405 0
-7 -12 -14 -23 -155 -159 -173 -178 -192 -196 -268 -295 -310 -314 -330 -343 -359 -363 -378 -405 0
-7 -12 -14 -23 -155 -159 -173 -178 -192 -196 -268 -289 -293 -316 -330 -343 -357 -380 -384 -405 0
-7 -12 -14 -23 -155 -159 -173 -178 -192 -196 -268 -273 -293 -314 -331 -342 -359 -380 -400 -405 0
-7 -12 -14 -23 -155 -159 -173 -178 -192 -196 -268 -273 -289 -310 -334 -339 -363 -384 -400 -405 0
-7 -11 -17 -19 -154 -165 -168 -183 -186 -197 -277 -283 -305 -329 -335 -338 -344 -368 -390 -396 0
-7 -11 -17 -19 -154 -165 -168 -183 -186 -197 -274 -286 -305 -320 -335 -338 -353 -368 -387 -399 0
-7 -11 -17 -19 -154 -165 -168 -183 -186 -197 -268 -283 -298 -317 -329 -344 -356 -375 -390 -405 0
-7 -11 -17 -19 -154 -165 -168 -183 -186 -197 -268 -274 -298 -320 -326 -347 -353 -375 -399 -405 0
-7 -11 -15 -21 -154 -162 -171 -180 -189 -197 -277 -283 -305 -331 -333 -340 -342 -368 -390 -396 0
-7 -11 -15 -21 -154 -162 -171 -180 -189 -197 -272 -283 -298 -311 -333 -340 -362 -375 -390 -401 0
-7 -11 -15 -21 -154 -162 -171 -180 -189 -197 -270 -292 -305 -320 -331 -342 -353 -368 -381 -403 0
-7 -11 -15 -21 -154 -162 -171 -180 -189 -197 -270 -272 -298 -320 -326 -347 -353 -375 -401 -403 0
-7 -11 -14 -24 -154 -159 -174 -177 -192 -197 -274 -289 -292 -308 -335 -338 -365 -381 -384 -399 0
-7 -11 -14 -24 -154 -159 -174 -177 -192 -197 -274 -286 -311 -314 -335 -338 -359 -362 -387 -399 0
-7 -11 -14 -24 -154 -159 -174 -177 -192 -197 -274 -286 -308 -331 -333 -340 -342 -365 -387 -399 0
-7 -11 -14 -24 -154 -159 -174 -177 -192 -197 -272 -289 -311 -329 -335 -338 -344 -362 -384 -401 0
-7 -11 -14 -24 -154 -159 -174 -177 -192 -197 -272 -289 -308 -317 -333 -340 -356 -365 -384 -401 0
-7 -11 -14 -24 -154 -159 -174 -177 -192 -197 -272 -286 -295 -311 -333 -340 -362 -378 -387 -401 0
-7 -11 -14 -24 -154 -159 -174 -177 -192 -197 -270 -292 -314 -329 -335 -338 -344 -359 -381 -403 0
-7 -11 -14 -24 -154 -159 -174 -177 -192 -197 -270 -292 -308 -317 -331 -342 -356 -365 -381 -403 0
-7 -11 -14 -24 -154 -159 -174 -177 -192 -197 -270 -286 -295 -314 -331 -342 -359 -378 -387 -403 0
-7 -11 -14 -24 -154 -159 -174 -177 -192 -197 -270 -272 -295 -317 -329 -344 -356 -378 -401 -403 0
-7 -11 -14 -24 -154 -159 -174 -177 -192 -197 -270 -272 -286 -308 -335 -338 -365 -387 -401 -403 0
-7 -11 -14 -24 -154 -159 -174 -177 -192 -197 -268 -295 -317 -331 -333 -340 -342 -356 -378 -405 0
-7 -11 -14 -24 -154 -159 -174 -177 -192 -197 -268 -295 -311 -314 -329 -344 -359 -362 -378 -405 0
-7 -11 -14 -24 -154 -159 -174 -177 -192 -197 -268 -289 -292 -317 -329 -344 -356 -381 -384 -405 0
-7 -11 -14 -24 -154 -159 -174 -177 -192 -197 -268 -274 -292 -314 -331 -342 -359 -381 -399 -405 0
-7 -11 -14 -24 -154 -159 -174 -177 -192 -197 -268 -274 -289 -311 -333 -340 -362 -384 -399 -405 0
-7 -10 -17 -20 -152 -165 -170 -181 -186 -199 -279 -282 -305 -329 -334 -339 -344 -368 -391 -394 0
-7 -10 -17 -20 -152 -165 -170 -181 -186 -199 -274 -286 -305 -321 -334 -339 -352 -368 -387 -399 0
-7 -10 -17 -20 -152 -165 -170 -181 -186 -199 -269 -282 -298 -317 -329 -344 -356 -375 -391 -404 0
-7 -10 -17 -20 -152 -165 -170 -181 -186 -199 -269 -274 -298 -321 -324 -349 -352 -375 -399 -404 0
-7 -10 -16 -21 -152 -164 -171 -180 -187 -199 -279 -282 -305 -330 -333 -340 -343 -368 -391 -394 0
-7 -10 -16 -21 -152 -164 -171 -180 -187 -199 -273 -282 -298 -311 -333 -340 -362 -375 -391 -400 0
-7 -10 -16 -21 -152 -164 -171 -180 -187 -199 -270 -292 -305 -321 -330 -343 -352 -368 -381 -403 0
-7 -10 -16 -21 -152 -164 -171 -180 -187 -199 -270 -273 -298 -321 -324 -349 -352 -375 -400 -403 0
-7 -10 -14 -26 -152 -159 -175 -176 -192 -199 -274 -287 -292 -310 -334 -339 -363 -381 -386 -399 0
-7 -10 -14 -26 -152 -159 -175 -176 -192 -199 -274 -286 -311 -316 -334 -339 -357 -362 -387 -399 0
-7 -10 -14 -26 -152 -159 -175 -176 -192 -199 -274 -286 -310 -330 -333 -340 -343 -363 -387 -399 0
-7 -10 -14 -26 -152 -159 -175 -176 -192 -199 -273 -287 -311 -329 -334 -339 -344 -362 -386 -400 0
-7 -10 -14 -26 -152 -159 -175 -176 -192 -199 -273 -287 -310 -317 -333 -340 -356 -363 -386 -400 0
-7 -10 -14 -26 -152 -159 -175 -176 -192 -199 -273 -286 -293 -311 -333 -340 -362 -380 -387 -400 0
-7 -10 -14 -26 -152 -159 -175 -176 -192 -199 -270 -292 -316 -329 -334 -339 -344 -357 -381 -403 0
-7 -10 -14 -26 -152 -159 -175 -176 -192 -199 -270 -292 -310 -317 -330 -343 -356 -363 -381 -403 0
-7 -10 -14 -26 -152 -159 -175 -176 -192 -199 -270 -286 -293 -316 -330 -343 -357 -380 -387 -403 0
-7 -10 -14 -26 -152 -159 -175 -176 -192 -199 -270 -273 -293 -317 -329 -344 -356 -380 -400 -403 0
-7 -10 -14 -26 -152 -159 -175 -176 -192 -199 -270 -273 -286 -310 -334 -339 -363 -387 -400 -403 0
-7 -10 -14 -26 -152 -159 -175 -176 -192 -199 -269 -293 -317 -330 -333 -340 -343 -356 -380 -404 0
-7 -10 -14 -26 -152 -159 -175 -176 -192 -199 -269 -293 -311 -316 -329 -344 -357 -362 -380 -404 0
-7 -10 -14 -26 -152 -159 -175 -176 -192 -199 -269 -287 -292 -317 -329 -344 -356 -381 -386 -404 0
-7 -10 -14 -26 -152 -159 -175 -176 -192 -199 -269 -274 -292 -316 -330 -343 -357 -381 -399 -404 0
-7 -10 -14 -26 -152 -159 -175 -176 -192 -199 -269 -274 -287 -311 -333 -340 -362 -386 -399 -404 0
-7 -9 -17 -23 -149 -165 -173 -178 -186 -202 -279 -283 -293 -308 -335 -338 -365 -380 -390 -394 0
-7 -9 -17 -23 -149 -165 -173 -178 -186 -202 -279 -282 -310 -320 -335 -338 -353 -363 -391 -394 0
-7 -9 -17 -23 -149 -165 -173 -178 -186 -202 -279 -282 -308 -326 -334 -339 -347 -365 -391 -394 0
-7 -9 -17 -23 -149 -165 -173 -178 -186 -202 -277 -283 -310 -324 -335 -338 -349 -363 -390 -396 0
-7 -9 -17 -23 -149 -165 -173 -178 -186 -202 -277 -283 -308 -321 -334 -339 -352 -365 -390 -396 0
-7 -9 -17 -23 -149 -165 -173 -178 -186 -202 -277 -282 -295 -310 -334 -339 -363 -378 -391 -396 0
-7 -9 -17 -23 -149 -165 -173 -178 -186 -202 -269 -293 -320 -324 -335 -338 -349 -353 -380 -404 0
-7 -9 -17 -23 -149 -165 -173 -178 -186 -202 -269 -293 -308 -321 -326 -347 -352 -365 -380 -404 0
-7 -9 -17 -23 -149 -165 -173 -178 -186 -202 -269 -282 -295 -320 -326 -347 -353 -378 -391 -404 0
-7 -9 -17 -23 -149 -165 -173 -178 -186 -202 -269 -277 -295 -321 -324 -349 -352 -378 -396 -404 0
-7 -9 -17 -23 -149 -165 -173 -178 -186 -202 -269 -277 -282 -308 -335 -338 -365 -391 -396 -404 0
-7 -9 -17 -23 -149 -165 -173 -178 -186 -202 -268 -295 -321 -326 -334 -339 -347 -352 -378 -405 0
-7 -9 -17 -23 -149 -165 -173 -178 -186 -202 -268 -295 -310 -320 -324 -349 -353 -363 -378 -405 0
-7 -9 -17 -23 -149 -165 -173 -178 -186 -202 -268 -283 -293 -321 -324 -349 -352 -380 -390 -405 0
-7 -9 -17 -23 -149 -165 -173 -178 -186 -202 -268 -279 -293 -320 -326 -347 -353 -380 -394 -405 0
-7 -9 -17 -23 -149 -165 -173 -178 -186 -202 -268 -279 -283 -310 -334 -339 -363 -390 -394 -405 0
-7 -9 -16 -24 -149 -164 -174 -177 -187 -202 -279 -282 -311 -319 -335 -338 -354 -362 -391 -394 0
-7 -9 -16 -24 -149 -164 -174 -177 -187 -202 -270 -292 -319 -324 -335 -338 -349 -354 -381 -403 0
-7 -9 -16 -24 -149 -164 -174 -177 -187 -202 -268 -284 -292 -321 -324 -349 -352 -381 -389 -405 0
-7 -9 -16 -24 -149 -164 -174 -177 -187 -202 -268 -279 -284 -311 -333 -340 -362 -389 -394 -405 0
-7 -9 -15 -26 -149 -162 -175 -176 -189 -202 -277 -283 -311 -319 -334 -339 -354 -362 -390 -396 0
-7 -9 -15 -26 -149 -162 -175 -176 -189 -202 -270 -292 -319 -326 -334 -339 -347 -354 -381 -403 0
-7 -9 -15 -26 -149 -162 -175 -176 -189 -202 -269 -284 -292 -320 -326 -347 -353 -381 -389 -404 0
-7 -9 -15 -26 -149 -162 -175 -176 -189 -202 -269 -277 -284 -311 -333 -340 -362 -389 -396 -404 0
-7 -8 -21 -23 -145 -171 -173 -178 -180 -206 -279 -283 -287 -314 -331 -342 -359 -386 -390 -394 0
-7 -8 -21 -23 -145 -171 -173 -178 -180 -206 -279 -282 -316 -320 -331 -342 -353 -357 -391 -394 0
-7 -8 -21 -23 -145 -171 -173 -178 -180 -206 -279 -282 -314 -326 -330 -343 -347 -359 -391 -394 0
-7 -8 -21 -23 -145 -171 -173 -178 -180 -206 -277 -283 -316 -324 -331 -342 -349 -357 -390 -396 0
-7 -8 -21 -23 -145 -171 -173 -178 -180 -206 -277 -283 -314 -321 -330 -343 -352 -359 -390 -396 0
-7 -8 -21 -23 -145 -171 -173 -178 -180 -206 -277 -282 -289 -316 -330 -343 -357 -384 -391 -396 0
-7 -8 -21 -23 -145 -171 -173 -178 -180 -206 -273 -287 -320 -324 -331 -342 -349 -353 -386 -400 0
-7 -8 -21 -23 -145 -171 -173 -178 -180 -206 -273 -287 -314 -321 -326 -347 -352 -359 -386 -400 0
-7 -8 -21 -23 -145 -171 -173 -178 -180 -206 -273 -282 -289 -320 -326 -347 -353 -384 -391 -400 0
-7 -8 -21 -23 -145 -171 -173 -178 -180 -206 -273 -277 -289 -321 -324 -349 -352 -384 -396 -400 0
-7 -8 -21 -23 -145 -171 -173 -178 -180 -206 -273 -277 -282 -314 -331 -342 -359 -391 -396 -400 0
-7 -8 -21 -23 -145 -171 -173 -178 -180 -206 -272 -289 -321 -326 -330 -343 -347 -352 -384 -401 0
-7 -8 -21 -23 -145 -171 -173 -178 -180 -206 -272 -289 -316 -320 -324 -349 -353 -357 -384 -401 0
-7 -8 -21 -23 -145 -171 -173 -178 -180 -206 -272 -283 -287 -321 -324 -349 -352 -386 -390 -401 0
-7 -8 -21 -23 -145 -171 -173 -178 -180 -206 -272 -279 -287 -320 -326 -347 -353 -386 -394 -401 0
-7 -8 -21 -23 -145 -171 -173 -178 -180 -206 -272 -279 -283 -316 -330 -343 -357 -390 -394 -401 0
-7 -8 -20 -24 -145 -170 -174 -177 -181 -206 -279 -282 -317 -319 -331 -342 -354 -356 -391 -394 0
-7 -8 -20 -24 -145 -170 -174 -177 -181 -206 -274 -286 -319 -324 -331 -342 -349 -354 -387 -399 0
-7 -8 -20 -24 -145 -170 -174 -177 -181 -206 -272 -284 -286 -321 -324 -349 -352 -387 -389 -401 0
-7 -8 -20 -24 -145 -170 -174 -177 -181 -206 -272 -279 -284 -317 -329 -344 -356 -389 -394 -401 0
-7 -8 -19 -26 -145 -168 -175 -176 -183 -206 -277 -283 -317 -319 -330 -343 -354 -356 -390 -396 0
-7 -8 -19 -26 -145 -168 -175 -176 -183 -206 -274 -286 -319 -326 -330 -343 -347 -354 -387 -399 0
-7 -8 -19 -26 -145 -168 -175 -176 -183 -206 -273 -284 -286 -320 -326 -347 -353 -387 -389 -400 0
-7 -8 -19 -26 -145 -168 -175 -176 -183 -206 -273 -277 -284 -317 -329 -344 -356 -389 -396 -400 0
-6 -64 -72 -76 -90 -93 -96 -184 -188 -196 -241 -253 -261 -267 -299 -374 -406 -412 -420 -432 0
-6 -64 -72 -76 -90 -93 -96 -184 -188 -196 -241 -250 -268 -273 -299 -374 -400 -405 -423 -432 0
-6 -64 -72 -76 -90 -93 -96 -184 -188 -196 -241 -250 -267 -288 -296 -377 -385 -406 -423 -432 0
-6 -64 -72 -76 -90 -93 -96 -184 -188 -196 -238 -253 -268 -285 -299 -374 -388 -405 -420 -435 0
-6 -64 -72 -76 -90 -93 -96 -184 -188 -196 -238 -253 -267 -276 -296 -377 -397 -406 -420 -435 0
-6 -64 -72 -76 -90 -93 -96 -184 -188 -196 -238 -250 -264 -268 -296 -377 -405 -409 -423 -435 0
-6 -64 -72 -76 -90 -93 -96 -184 -188 -196 -233 -261 -273 -285 -299 -374 -388 -400 -412 -440 0
-6 -64 -72 -76 -90 -93 -96 -184 -188 -196 -233 -261 -267 -276 -288 -385 -397 -406 -412 -440 0
-6 -64 -72 -76 -90 -93 -96 -184 -188 -196 -233 -250 -264 -273 -288 -385 -400 -409 -423 -440 0
-6 -64 -72 -76 -90 -93 -96 -184 -188 -196 -233 -238 -264 -276 -285 -388 -397 -409 -435 -440 0
-6 -64 -72 -76 -90 -93 -96 -184 -188 -196 -233 -238 -250 -267 -299 -374 -406 -423 -435 -440 0
-6 -64 -72 -76 -90 -93 -96 -184 -188 -196 -232 -264 -276 -288 -296 -377 -385 -397 -409 -441 0
-6 -64 -72 -76 -90 -93 -96 -184 -188 -196 -232 -264 -268 -273 -285 -388 -400 -405 -409 -441 0
-6 -64 -72 -76 -90 -93 -96 -184 -188 -196 -232 -253 -261 -276 -285 -388 -397 -412 -420 -441 0
-6 -64 -72 -76 -90 -93 -96 -184 -188 -196 -232 -241 -261 -273 -288 -385 -400 -412 -432 -441 0
-6 -64 -72 -76 -90 -93 -96 -184 -188 -196 -232 -241 -253 -268 -296 -377 -405 -420 -432 -441 0
-6 -64 -70 -78 -90 -92 -97 -182 -190 -196 -241 -255 -259 -267 -299 -374 -406 -414 -418 -432 0
-6 -64 -70 -78 -90 -92 -97 -182 -190 -196 -241 -250 -269 -272 -299 -374 -401 -404 -423 -432 0
-6 -64 -70 -78 -90 -92 -97 -182 -190 -196 -241 -250 -267 -290 -294 -379 -383 -406 -423 -432 0
-6 -64 -70 -78 -90 -92 -97 -182 -190 -196 -237 -255 -269 -285 -299 -374 -388 -404 -418 -436 0
-6 -64 -70 -78 -90 -92 -97 -182 -190 -196 -237 -255 -267 -276 -294 -379 -397 -406 -418 -436 0
-6 -64 -70 -78 -90 -92 -97 -182 -190 -196 -237 -250 -264 -269 -294 -379 -404 -409 -423 -436 0
-6 -64 -70 -78 -90 -92 -97 -182 -190 -196 -234 -259 -272 -285 -299 -374 -388 -401 -414 -439 0
-6 -64 -70 -78 -90 -92 -97 -182 -190 -196 -234 -259 -267 -276 -290 -383 -397 -406 -414 -439 0
-6 -64 -70 -78 -90 -92 -97 -182 -190 -196 -234 -250 -264 -272 -290 -383 -401 -409 -423 -439 0
-6 -64 -70 -78 -90 -92 -97 -182 -190 -196 -234 -237 -264 -276 -285 -388 -397 -409 -436 -439 0
-6 -64 -70 -78 -90 -92 -97 -182 -190 -196 -234 -237 -250 -267 -299 -374 -406 -423 -436 -439 0
-6 -64 -70 -78 -90 -92 -97 -182 -190 -196 -232 -264 -276 -290 -294 -379 -383 -397 -409 -441 0
-6 -64 -70 -78 -90 -92 -97 -182 -190 -196 -232 -264 -269 -272 -285 -388 -401 -404 -409 -441 0
-6 -64 -70 -78 -90 -92 -97 -182 -190 -196 -232 -255 -259 -276 -285 -388 -397 -414 -418 -441 0
-6 -64 -70 -78 -90 -92 -97 -182 -190 -196 -232 -241 -259 -272 -290 -383 -401 -414 -432 -441 0
-6 -64 -70 -78 -90 -92 -97 -182 -190 -196 -232 -241 -255 -269 -294 -379 -404 -418 -432 -441 0
-6 -64 -67 -81 -90 -91 -100 -179 -193 -196 -238 -255 -259 -268 -296 -377 -405 -414 -418 -435 0
-6 -64 -67 -81 -90 -91 -100 -179 -193 -196 -238 -253 -269 -272 -296 -377 -401 -404 -420 -435 0
-6 -64 -67 -81 -90 -91 -100 -179 -193 -196 -238 -253 -268 -290 -294 -379 -383 -405 -420 -435 0
-6 -64 -67 -81 -90 -91 -100 -179 -193 -196 -237 -255 -269 -288 -296 -377 -385 -404 -418 -436 0
-6 -64 -67 -81 -90 -91 -100 -179 -193 -196 -237 -255 -268 -273 -294 -379 -400 -405 -418 -436 0
-6 -64 -67 -81 -90 -91 -100 -179 -193 -196 -237 -253 -261 -269 -294 -379 -404 -412 -420 -436 0
-6 -64 -67 -81 -90 -91 -100 -179 -193 -196 -234 -259 -272 -288 -296 -377 -385 -401 -414 -439 0
-6 -64 -67 -81 -90 -91 -100 -179 -193 -196 -234 -259 -268 -273 -290 -383 -400 -405 -414 -439 0
-6 -64 -67 -81 -90 -91 -100 -179 -193 -196 -234 -253 -261 -272 -290 -383 -401 -412 -420 -439 0
-6 -64 -67 -81 -90 -91 -100 -179 -193 -196 -234 -237 -261 -273 -288 -385 -400 -412 -436 -439 0
-6 -64 -67 -81 -90 -91 -100 -179 -193 -196 -234 -237 -253 -268 -296 -377 -405 -420 -436 -439 0
-6 -64 -67 -81 -90 -91 -100 -179 -193 -196 -233 -261 -273 -290 -294 -379 -383 -400 -412 -440 0
-6 -64 -67 -81 -90 -91 -100 -179 -193 -196 -233 -261 -269 -272 -288 -385 -401 -404 -412 -440 0
-6 -64 -67 -81 -90 -91 -100 -179 -193 -196 -233 -255 -259 -273 -288 -385 -400 -414 -418 -440 0
-6 -64 -67 -81 -90 -91 -100 -179 -193 -196 -233 -238 -259 -272 -290 -383 -401 -414 -435 -440 0
-6 -64 -67 -81 -90 -91 -100 -179 -193 -196 -233 -238 -255 -269 -294 -379 -404 -418 -435 -440 0
-6 -62 -67 -83 -88 -91 -102 -177 -193 -198 -237 -255 -268 -275 -292 -381 -398 -405 -418 -436 0
-6 -62 -67 -83 -88 -91 -102 -177 -193 -198 -236 -237 -261 -275 -286 -387 -398 -412 -436 -437 0
-6 -62 -67 -83 -88 -91 -102 -177 -193 -198 -233 -261 -271 -272 -286 -387 -401 -402 -412 -440 0
-6 -62 -67 -83 -88 -91 -102 -177 -193 -198 -233 -240 -255 -271 -292 -381 -402 -418 -433 -440 0
-6 -60 -67 -84 -87 -91 -104 -176 -193 -200 -238 -253 -269 -275 -292 -381 -398 -404 -420 -435 0
-6 -60 -67 -84 -87 -91 -104 -176 -193 -200 -236 -238 -259 -275 -286 -387 -398 -414 -435 -437 0
-6 -60 -67 -84 -87 -91 -104 -176 -193 -200 -234 -259 -271 -273 -286 -387 -400 -402 -414 -439 0
-6 -60 -67 -84 -87 -91 -104 -176 -193 -200 -234 -240 -253 -271 -292 -381 -402 -420 -433 -439 0
-6 -57 -74 -81 -86 -95 -100 -179 -186 -203 -234 -259 -268 -280 -283 -390 -393 -405 -414 -439 0
-6 -57 -74 -81 -86 -95 -100 -179 -186 -203 -234 -243 -261 -280 -282 -391 -393 -412 -430 -439 0
-6 -57 -74 -81 -86 -95 -100 -179 -186 -203 -233 -261 -269 -278 -282 -391 -395 -404 -412 -440 0
-6 -57 -74 -81 -86 -95 -100 -179 -186 -203 -233 -245 -259 -278 -283 -390 -395 -414 -428 -440 0
-6 -53 -80 -81 -85 -99 -100 -179 -180 -207 -238 -253 -272 -280 -283 -390 -393 -401 -420 -435 0
-6 -53 -80 -81 -85 -99 -100 -179 -180 -207 -238 -243 -255 -280 -282 -391 -393 -418 -430 -435 0
-6 -53 -80 -81 -85 -99 -100 -179 -180 -207 -237 -255 -273 -278 -282 -391 -395 -400 -418 -436 0
-6 -53 -80 -81 -85 -99 -100 -179 -180 -207 -237 -245 -253 -278 -283 -390 -395 -420 -428 -436 0
-6 -34 -37 -40 -120 -128 -132 -184 -188 -196 -241 -253 -261 -304 -336 -337 -369 -412 -420 -432 0
-6 -34 -37 -40 -120 -128 -132 -184 -188 -196 -241 -250 -307 -315 -336 -337 -358 -366 -423 -432 0
-6 -34 -37 -40 -120 -128 -132 -184 -188 -196 -241 -250 -304 -330 -335 -338 -343 -369 -423 -432 0
-6 -34 -37 -40 -120 -128 -132 -184 -188 -196 -238 -253 -307 -327 -336 -337 -346 -366 -420 -435 0
-6 -34 -37 -40 -120 -128 -132 -184 -188 -196 -238 -253 -304 -318 -335 -338 -355 -369 -420 -435 0
-6 -34 -37 -40 -120 -128 -132 -184 -188 -196 -238 -250 -264 -307 -335 -338 -366 -409 -423 -435 0
-6 -34 -37 -40 -120 -128 -132 -184 -188 -196 -233 -261 -315 -327 -336 -337 -346 -358 -412 -440 0
-6 -34 -37 -40 -120 -128 -132 -184 -188 -196 -233 -261 -304 -318 -330 -343 -355 -369 -412 -440 0
-6 -34 -37 -40 -120 -128 -132 -184 -188 -196 -233 -250 -264 -315 -330 -343 -358 -409 -423 -440 0
-6 -34 -37 -40 -120 -128 -132 -184 -188 -196 -233 -238 -264 -318 -327 -346 -355 -409 -435 -440 0
-6 -34 -37 -40 -120 -128 -132 -184 -188 -196 -233 -238 -250 -304 -336 -337 -369 -423 -435 -440 0
-6 -34 -37 -40 -120 -128 -132 -184 -188 -196 -232 -264 -318 -330 -335 -338 -343 -355 -409 -441 0
-6 -34 -37 -40 -120 -128 -132 -184 -188 -196 -232 -264 -307 -315 -327 -346 -358 -366 -409 -441 0
-6 -34 -37 -40 -120 -128 -132 -184 -188 -196 -232 -253 -261 -318 -327 -346 -355 -412 -420 -441 0
-6 -34 -37 -40 -120 -128 -132 -184 -188 -196 -232 -241 -261 -315 -330 -343 -358 -412 -432 -441 0
-6 -34 -37 -40 -120 -128 -132 -184 -188 -196 -232 -241 -253 -307 -335 -338 -366 -420 -432 -441 0
-6 -34 -36 -41 -120 -126 -134 -182 -190 -196 -241 -255 -259 -304 -336 -337 -369 -414 -418 -432 0
-6 -34 -36 -41 -120 -126 -134 -182 -190 -196 -241 -250 -309 -313 -336 -337 -360 -364 -423 -432 0
-6 -34 -36 -41 -120 -126 -134 -182 -190 -196 -241 -250 -304 -331 -334 -339 -342 -369 -423 -432 0
-6 -34 -36 -41 -120 -126 -134 -182 -190 -196 -237 -255 -309 -327 -336 -337 -346 -364 -418 -436 0
-6 -34 -36 -41 -120 -126 -134 -182 -190 -196 -237 -255 -304 -318 -334 -339 -355 -369 -418 -436 0
-6 -34 -36 -41 -120 -126 -134 -182 -190 -196 -237 -250 -264 -309 -334 -339 -364 -409 -423 -436 0
-6 -34 -36 -41 -120 -126 -134 -182 -190 -196 -234 -259 -313 -327 -336 -337 -346 -360 -414 -439 0
-6 -34 -36 -41 -120 -126 -134 -182 -190 -196 -234 -259 -304 -318 -331 -342 -355 -369 -414 -439 0
-6 -34 -36 -41 -120 -126 -134 -182 -190 -196 -234 -250 -264 -313 -331 -342 -360 -409 -423 -439 0
-6 -34 -36 -41 -120 -126 -134 -182 -190 -196 -234 -237 -264 -318 -327 -346 -355 -409 -436 -439 0
-6 -34 -36 -41 -120 -126 -134 -182 -190 -196 -234 -237 -250 -304 -336 -337 -369 -423 -436 -439 0
-6 -34 -36 -41 -120 -126 -134 -182 -190 -196 -232 -264 -318 -331 -334 -339 -342 -355 -409 -441 0
-6 -34 -36 -41 -120 -126 -134 -182 -190 -196 -232 -264 -309 -313 -327 -346 -360 -364 -409 -441 0
-6 -34 -36 -41 -120 -126 -134 -182 -190 -196 -232 -255 -259 -318 -327 -346 -355 -414 -418 -441 0
-6 -34 -36 -41 -120 -126 -134 -182 -190 -196 -232 -241 -259 -313 -331 -342 -360 -414 -432 -441 0
-6 -34 -36 -41 -120 -126 -134 -182 -190 -196 -232 -241 -255 -309 -334 -339 -364 -418 -432 -441 0
-6 -34 -35 -44 -120 -123 -137 -179 -193 -196 -238 -255 -259 -307 -335 -338 -366 -414 -418 -435 0
-6 -34 -35 -44 -120 -123 -137 -179 -193 -196 -238 -253 -309 -313 -335 -338 -360 -364 -420 -435 0
-6 -34 -35 -44 -120 -123 -137 -179 -193 -196 -238 -253 -307 -331 -334 -339 -342 -366 -420 -435 0
-6 -34 -35 -44 -120 -123 -137 -179 -193 -196 -237 -255 -309 -330 -335 -338 -343 -364 -418 -436 0
-6 -34 -35 -44 -120 -123 -137 -179 -193 -196 -237 -255 -307 -315 -334 -339 -358 -366 -418 -436 0
-6 -34 -35 -44 -120 -123 -137 -179 -193 -196 -237 -253 -261 -309 -334 -339 -364 -412 -420 -436 0
-6 -34 -35 -44 -120 -123 -137 -179 -193 -196 -234 -259 -313 -330 -335 -338 -343 -360 -414 -439 0
-6 -34 -35 -44 -120 -123 -137 -179 -193 -196 -234 -259 -307 -315 -331 -342 -358 -366 -414 -439 0
-6 -34 -35 -44 -120 -123 -137 -179 -193 -196 -234 -253 -261 -313 -331 -342 -360 -412 -420 -439 0
-6 -34 -35 -44 -120 -123 -137 -179 -193 -196 -234 -237 -261 -315 -330 -343 -358 -412 -436 -439 0
-6 -34 -35 -44 -120 -123 -137 -179 -193 -196 -234 -237 -253 -307 -335 -338 -366 -420 -436 -439 0
-6 -34 -35 -44 -120 -123 -137 -179 -193 -196 -233 -261 -315 -331 -334 -339 -342 -358 -412 -440 0
-6 -34 -35 -44 -120 -123 -137 -179 -193 -196 -233 -261 -309 -313 -330 -343 -360 -364 -412 -440 0
-6 -34 -35 -44 -120 -123 -137 -179 -193 -196 -233 -255 -259 -315 -330 -343 -358 -414 -418 -440 0
-6 -34 -35 -44 -120 -123 -137 -179 -193 -196 -233 -238 -259 -313 -331 -342 -360 -414 -435 -440 0
-6 -34 -35 -44 -120 -123 -137 -179 -193 -196 -233 -238 -255 -309 -334 -339 -364 -418 -435 -440 0
-6 -32 -35 -46 -118 -123 -139 -177 -193 -198 -237 -255 -311 -328 -335 -338 -345 -362 -418 -436 0
-6 -32 -35 -46 -118 -123 -139 -177 -193 -198 -236 -237 -261 -317 -328 -345 -356 -412 -436 -437 0
-6 -32 -35 -46 -118 -123 -139 -177 -193 -198 -233 -261 -317 -331 -332 -341 -342 -356 -412 -440 0
-6 -32 -35 -46 -118 -123 -139 -177 -193 -198 -233 -240 -255 -311 -332 -341 -362 -418 -433 -440 0
-6 -31 -35 -48 -116 -123 -140 -176 -193 -200 -238 -253 -311 -328 -334 -339 -345 -362 -420 -435 0
-6 -31 -35 -48 -116 -123 -140 -176 -193 -200 -236 -238 -259 -317 -328 -345 -356 -414 -435 -437 0
-6 -31 -35 -48 -116 -123 -140 -176 -193 -200 -234 -259 -317 -330 -332 -341 -343 -356 -414 -439 0
-6 -31 -35 -48 -116 -123 -140 -176 -193 -200 -234 -240 -253 -311 -332 -341 -362 -420 -433 -439 0
-6 -30 -39 -44 -113 -130 -137 -179 -186 -203 -234 -259 -320 -323 -335 -338 -350 -353 -414 -439 0
-6 -30 -39 -44 -113 -130 -137 -179 -186 -203 -234 -243 -261 -321 -323 -350 -352 -412 -430 -439 0
-6 -30 -39 -44 -113 -130 -137 -179 -186 -203 -233 -261 -321 -325 -334 -339 -348 -352 -412 -440 0
-6 -30 -39 -44 -113 -130 -137 -179 -186 -203 -233 -245 -259 -320 -325 -348 -353 -414 -428 -440 0
-6 -29 -43 -44 -109 -136 -137 -179 -180 -207 -238 -253 -320 -323 -331 -342 -350 -353 -420 -435 0
-6 -29 -43 -44 -109 -136 -137 -179 -180 -207 -238 -243 -255 -321 -323 -350 -352 -418 -430 -435 0
-6 -29 -43 -44 -109 -136 -137 -179 -180 -207 -237 -255 -321 -325 -330 -343 -348 -352 -418 -436 0
-6 -29 -43 -44 -109 -136 -137 -179 -180 -207 -237 -245 -253 -320 -325 -348 -353 -420 -428 -436 0
-6 -13 -16 -19 -155 -163 -167 -184 -188 -196 -276 -288 -296 -304 -336 -337 -369 -377 -385 -397 0
-6 -13 -16 -19 -155 -163 -167 -184 -188 -196 -276 -285 -307 -315 -336 -337 -358 -366 -388 -397 0
-6 -13 -16 -19 -155 -163 -167 -184 -188 -196 -276 -285 -304 -330 -335 -338 -343 -369 -388 -397 0
-6 -13 -16 -19 -155 -163 -167 -184 -188 -196 -273 -288 -307 -327 -336 -337 -346 -366 -385 -400 0
-6 -13 -16 -19 -155 -163 -167 -184 -188 -196 -273 -288 -304 -318 -335 -338 -355 -369 -385 -400 0
-6 -13 -16 -19 -155 -163 -167 -184 -188 -196 -273 -285 -299 -307 -335 -338 -366 -374 -388 -400 0
-6 -13 -16 -19 -155 -163 -167 -184 -188 -196 -268 -296 -315 -327 -336 -337 -346 -358 -377 -405 0
-6 -13 -16 -19 -155 -163 -167 -184 -188 -196 -268 -296 -304 -318 -330 -343 -355 -369 -377 -405 0
-6 -13 -16 -19 -155 -163 -167 -184 -188 -196 -268 -285 -299 -315 -330 -343 -358 -374 -388 -405 0
-6 -13 -16 -19 -155 -163 -167 -184 -188 -196 -268 -273 -299 -318 -327 -346 -355 -374 -400 -405 0
-6 -13 -16 -19 -155 -163 -167 -184 -188 -196 -268 -273 -285 -304 -336 -337 -369 -388 -400 -405 0
-6 -13 -16 -19 -155 -163 -167 -184 -188 -196 -267 -299 -318 -330 -335 -338 -343 -355 -374 -406 0
-6 -13 -16 -19 -155 -163 -167 -184 -188 -196 -267 -299 -307 -315 -327 -346 -358 -366 -374 -406 0
-6 -13 -16 -19 -155 -163 -167 -184 -188 -196 -267 -288 -296 -318 -327 -346 -355 -377 -385 -406 0
-6 -13 -16 -19 -155 -163 -167 -184 -188 -196 -267 -276 -296 -315 -330 -343 -358 -377 -397 -406 0
-6 -13 -16 -19 -155 -163 -167 -184 -188 -196 -267 -276 -288 -307 -335 -338 -366 -385 -397 -406 0
-6 -13 -15 -20 -155 -161 -169 -182 -190 -196 -276 -290 -294 -304 -336 -337 -369 -379 -383 -397 0
-6 -13 -15 -20 -155 -161 -169 -182 -190 -196 -276 -285 -309 -313 -336 -337 -360 -364 -388 -397 0
-6 -13 -15 -20 -155 -161 -169 -182 -190 -196 -276 -285 -304 -331 -334 -339 -342 -369 -388 -397 0
-6 -13 -15 -20 -155 -161 -169 -182 -190 -196 -272 -290 -309 -327 -336 -337 -346 -364 -383 -401 0
-6 -13 -15 -20 -155 -161 -169 -182 -190 -196 -272 -290 -304 -318 -334 -339 -355 -369 -383 -401 0
-6 -13 -15 -20 -155 -161 -169 -182 -190 -196 -272 -285 -299 -309 -334 -339 -364 -374 -388 -401 0
-6 -13 -15 -20 -155 -161 -169 -182 -190 -196 -269 -294 -313 -327 -336 -337 -346 -360 -379 -404 0
-6 -13 -15 -20 -155 -161 -169 -182 -190 -196 -269 -294 -304 -318 -331 -342 -355 -369 -379 -404 0
-6 -13 -15 -20 -155 -161 -169 -182 -190 -196 -269 -285 -299 -313 -331 -342 -360 -374 -388 -404 0
-6 -13 -15 -20 -155 -161 -169 -182 -190 -196 -269 -272 -299 -318 -327 -346 -355 -374 -401 -404 0
-6 -13 -15 -20 -155 -161 -169 -182 -190 -196 -269 -272 -285 -304 -336 -337 -369 -388 -401 -404 0
-6 -13 -15 -20 -155 -161 -169 -182 -190 -196 -267 -299 -318 -331 -334 -339 -342 -355 -374 -406 0
-6 -13 -15 -20 -155 -161 -169 -182 -190 -196 -267 -299 -309 -313 -327 -346 -360 -364 -374 -406 0
-6 -13 -15 -20 -155 -161 -169 -182 -190 -196 -267 -290 -294 -318 -327 -346 -355 -379 -383 -406 0
-6 -13 -15 -20 -155 -161 -169 -182 -190 -196 -267 -276 -294 -313 -331 -342 -360 -379 -397 -406 0
-6 -13 -15 -20 -155 -161 -169 -182 -190 -196 -267 -276 -290 -309 -334 -339 -364 -383 -397 -406 0
-6 -13 -14 -23 -155 -158 -172 -179 -193 -196 -273 -290 -294 -307 -335 -338 -366 -379 -383 -400 0
-6 -13 -14 -23 -155 -158 -172 -179 -193 -196 -273 -288 -309 -313 -335 -338 -360 -364 -385 -400 0
-6 -13 -14 -23 -155 -158 -172 -179 -193 -196 -273 -288 -307 -331 -334 -339 -342 -366 -385 -400 0
-6 -13 -14 -23 -155 -158 -172 -179 -193 -196 -272 -290 -309 -330 -335 -338 -343 -364 -383 -401 0
-6 -13 -14 -23 -155 -158 -172 -179 -193 -196 -272 -290 -307 -315 -334 -339 -358 -366 -383 -401 0
-6 -13 -14 -23 -155 -158 -172 -179 -193 -196 -272 -288 -296 -309 -334 -339 -364 -377 -385 -401 0
-6 -13 -14 -23 -155 -158 -172 -179 -193 -196 -269 -294 -313 -330 -335 -338 -343 -360 -379 -404 0
-6 -13 -14 -23 -155 -158 -172 -179 -193 -196 -269 -294 -307 -315 -331 -342 -358 -366 -379 -404 0
-6 -13 -14 -23 -155 -158 -172 -179 -193 -196 -269 -288 -296 -313 -331 -342 -360 -377 -385 -404 0
-6 -13 -14 -23 -155 -158 -172 -179 -193 -196 -269 -272 -296 -315 -330 -343 -358 -377 -401 -404 0
-6 -13 -14 -23 -155 -158 -172 -179 -193 -196 -269 -272 -288 -307 -335 -338 -366 -385 -401 -404 0
-6 -13 -14 -23 -155 -158 -172 -179 -193 -196 -268 -296 -315 -331 -334 -339 -342 -358 -377 -405 0
-6 -13 -14 -23 -155 -158 -172 -179 -193 -196 -268 -296 -309 -313 -330 -343 -360 -364 -377 -405 0
-6 -13 -14 -23 -155 -158 -172 -179 -193 -196 -268 -290 -294 -315 -330 -343 -358 -379 -383 -405 0
-6 -13 -14 -23 -155 -158 -172 -179 -193 -196 -268 -273 -294 -313 -331 -342 -360 -379 -400 -405 0
-6 -13 -14 -23 -155 -158 -172 -179 -193 -196 -268 -273 -290 -309 -334 -339 -364 -383 -400 -405 0
-6 -11 -18 -19 -153 -165 -167 -184 -186 -198 -278 -283 -304 -328 -335 -338 -345 -369 -390 -395 0
-6 -11 -18 -19 -153 -165 -167 -184 -186 -198 -275 -286 -304 -320 -335 -338 -353 -369 -387 -398 0
-6 -11 -18 -19 -153 -165 -167 -184 -186 -198 -268 -283 -299 -317 -328 -345 -356 -374 -390 -405 0
-6 -11 -18 -19 -153 -165 -167 -184 -186 -198 -268 -275 -299 -320 -325 -348 -353 -374 -398 -405 0
-6 -11 -15 -22 -153 -161 -171 -180 -190 -198 -278 -283 -304 -331 -332 -341 -342 -369 -390 -395 0
-6 -11 -15 -22 -153 -161 -171 -180 -190 -198 -272 -283 -299 -311 -332 -341 -362 -374 -390 -401 0
-6 -11 -15 -22 -153 -161 -171 -180 -190 -198 -271 -292 -304 -320 -331 -342 -353 -369 -381 -402 0
-6 -11 -15 -22 -153 -161 -171 -180 -190 -198 -271 -272 -299 -320 -325 -348 -353 -374 -401 -402 0
-6 -11 -14 -25 -153 -158 -174 -177 -193 -198 -275 -290 -292 -307 -335 -338 -366 -381 -383 -398 0
-6 -11 -14 -25 -153 -158 -174 -177 -193 -198 -275 -286 -311 -313 -335 -338 -360 -362 -387 -398 0
-6 -11 -14 -25 -153 -158 -174 -177 -193 -198 -275 -286 -307 -331 -332 -341 -342 -366 -387 -398 0
-6 -11 -14 -25 -153 -158 -174 -177 -193 -198 -272 -290 -311 -328 -335 -338 -345 -362 -383 -401 0
-6 -11 -14 -25 -153 -158 -174 -177 -193 -198 -272 -290 -307 -317 -332 -341 -356 -366 -383 -401 0
-6 -11 -14 -25 -153 -158 -174 -177 -193 -198 -272 -286 -296 -311 -332 -341 -362 -377 -387 -401 0
-6 -11 -14 -25 -153 -158 -174 -177 -193 -198 -271 -292 -313 -328 -335 -338 -345 -360 -381 -402 0
-6 -11 -14 -25 -153 -158 -174 -177 -193 -198 -271 -292 -307 -317 -331 -342 -356 -366 -381 -402 0
-6 -11 -14 -25 -153 -158 -174 -177 -193 -198 -271 -286 -296 -313 -331 -342 -360 -377 -387 -402 0
-6 -11 -14 -25 -153 -158 -174 -177 -193 -198 -271 -272 -296 -317 -328 -345 -356 -377 -401 -402 0
-6 -11 -14 -25 -153 -158 -174 -177 -193 -198 -271 -272 -286 -307 -335 -338 -366 -387 -401 -402 0
-6 -11 -14 -25 -153 -158 -174 -177 -193 -198 -268 -296 -317 -331 -332 -341 -342 -356 -377 -405 0
-6 -11 -14 -25 -153 -158 -174 -177 -193 -198 -268 -296 -311 -313 -328 -345 -360 -362 -377 -405 0
-6 -11 -14 -25 -153 -158 -174 -177 -193 -198 -268 -290 -292 -317 -328 -345 -356 -381 -383 -405 0
-6 -11 -14 -25 -153 -158 -174 -177 -193 -198 -268 -275 -292 -313 -331 -342 -360 -381 -398 -405 0
-6 -11 -14 -25 -153 -158 -174 -177 -193 -198 -268 -275 -290 -311 -332 -341 -362 -383 -398 -405 0
-6 -10 -18 -20 -151 -165 -169 -182 -186 -200 -280 -282 -304 -328 -334 -339 -345 -369 -391 -393 0
-6 -10 -18 -20 -151 -165 -169 -182 -186 -200 -275 -286 -304 -321 -334 -339 -352 -369 -387 -398 0
-6 -10 -18 -20 -151 -165 -169 -182 -186 -200 -269 -282 -299 -317 -328 -345 -356 -374 -391 -404 0
-6 -10 -18 -20 -151 -165 -169 -182 -186 -200 -269 -275 -299 -321 -323 -350 -352 -374 -398 -404 0
-6 -10 -16 -22 -151 -163 -171 -180 -188 -200 -280 -282 -304 -330 -332 -341 -343 -369 -391 -393 0
-6 -10 -16 -22 -151 -163 -171 -180 -188 -200 -273 -282 -299 -311 -332 -341 -362 -374 -391 -400 0
-6 -10 -16 -22 -151 -163 -171 -180 -188 -200 -271 -292 -304 -321 -330 -343 -352 -369 -381 -402 0
-6 -10 -16 -22 -151 -163 -171 -180 -188 -200 -271 -273 -299 -321 -323 -350 -352 -374 -400 -402 0
-6 -10 -14 -27 -151 -158 -175 -176 -193 -200 -275 -288 -292 -309 -334 -339 -364 -381 -385 -398 0
-6 -10 -14 -27 -151 -158 -175 -176 -193 -200 -275 -286 -311 -315 -334 -339 -358 -362 -387 -398 0
-6 -10 -14 -27 -151 -158 -175 -176 -193 -200 -275 -286 -309 -330 -332 -341 -343 -364 -387 -398 0
-6 -10 -14 -27 -151 -158 -175 -176 -193 -200 -273 -288 -311 -328 -334 -339 -345 -362 -385 -400 0
-6 -10 -14 -27 -151 -158 -175 -176 -193 -200 -273 -288 -309 -317 -332 -341 -356 -364 -385 -400 0
-6 -10 -14 -27 -151 -158 -175 -176 -193 -200 -273 -286 -294 -311 -332 -341 -362 -379 -387 -400 0
-6 -10 -14 -27 -151 -158 -175 -176 -193 -200 -271 -292 -315 -328 -334 -339 -345 -358 -381 -402 0
-6 -10 -14 -27 -151 -158 -175 -176 -193 -200 -271 -292 -309 -317 -330 -343 -356 -364 -381 -402 0
-6 -10 -14 -27 -151 -158 -175 -176 -193 -200 -271 -286 -294 -315 -330 -343 -358 -379 -387 -402 0
-6 -10 -14 -27 -151 -158 -175 -176 -193 -200 -271 -273 -294 -317 -328 -345 -356 -379 -400 -402 0
-6 -10 -14 -27 -151 -158 -175 -176 -193 -200 -271 -273 -286 -309 -334 -339 -364 -387 -400 -402 0
-6 -10 -14 -27 -151 -158 -175 -176 -193 -200 -269 -294 -317 -330 -332 -341 -343 -356 -379 -404 0
-6 -10 -14 -27 -151 -158 -175 -176 -193 -200 -269 -294 -311 -315 -328 -345 -358 -362 -379 -404 0
-6 -10 -14 -27 -151 -158 -175 -176 -193 -200 -269 -288 -292 -317 -328 -345 -356 -381 -385 -404 0
-6 -10 -14 -27 -151 -158 -175 -176 -193 -200 -269 -275 -292 -315 -330 -343 -358 -381 -398 -404 0
-6 -10 -14 -27 -151 -158 -175 -176 -193 -200 -269 -275 -288 -311 -332 -341 -362 -385 -398 -404 0
-6 -9 -18 -23 -148 -165 -172 -179 -186 -203 -280 -283 -294 -307 -335 -338 -366 -379 -390 -393 0
-6 -9 -18 -23 -148 -165 -172 -179 -186 -203 -280 -282 -309 -320 -335 -338 -353 -364 -391 -393 0
-6 -9 -18 -23 -148 -165 -172 -179 -186 -203 -280 -282 -307 -325 -334 -339 -348 -366 -391 -393 0
-6 -9 -18 -23 -148 -165 -172 -179 -186 -203 -278 -283 -309 -323 -335 -338 -350 -364 -390 -395 0
-6 -9 -18 -23 -148 -165 -172 -179 -186 -203 -278 -283 -307 -321 -334 -339 -352 -366 -390 -395 0
-6 -9 -18 -23 -148 -165 -172 -179 -186 -203 -278 -282 -296 -309 -334 -339 -364 -377 -391 -395 0
-6 -9 -18 -23 -148 -165 -172 -179 -186 -203 -269 -294 -320 -323 -335 -338 -350 -353 -379 -404 0
-6 -9 -18 -23 -148 -165 -172 -179 -186 -203 -269 -294 -307 -321 -325 -348 -352 -366 -379 -404 0
-6 -9 -18 -23 -148 -165 -172 -179 -186 -203 -269 -282 -296 -320 -325 -348 -353 -377 -391 -404 0
-6 -9 -18 -23 -148 -165 -172 -179 -186 -203 -269 -278 -296 -321 -323 -350 -352 -377 -395 -404 0
-6 -9 -18 -23 -148 -165 -172 -179 -186 -203 -269 -278 -282 -307 -335 -338 -366 -391 -395 -404 0
-6 -9 -18 -23 -148 -165 -172 -179 -186 -203 -268 -296 -321 -325 -334 -339 -348 -352 -377 -405 0
-6 -9 -18 -23 -148 -165 -172 -179 -186 -203 -268 -296 -309 -320 -323 -350 -353 -364 -377 -405 0
-6 -9 -18 -23 -148 -165 -172 -179 -186 -203 -268 -283 -294 -321 -323 -350 -352 -379 -390 -405 0
-6 -9 -18 -23 -148 -165 -172 -179 -186 -203 -268 -280 -294 -320 -325 -348 -353 -379 -393 -405 0
-6 -9 -18 -23 -148 -165 -172 -179 -186 -203 -268 -280 -283 -309 -334 -339 -364 -390 -393 -405 0
-6 -9 -16 -25 -148 -163 -174 -177 -188 -203 -280 -282 -311 -318 -335 -338 -355 -362 -391 -393 0
-6 -9 -16 -25 -148 -163 -174 -177 -188 -203 -271 -292 -318 -323 -335 -338 -350 -355 -381 -402 0
-6 -9 -16 -25 -148 -163 -174 -177 -188 -203 -268 -285 -292 -321 -323 -350 -352 -381 -388 -405 0
-6 -9 -16 -25 -148 -163 -174 -177 -188 -203 -268 -280 -285 -311 -332 -341 -362 -388 -393 -405 0
-6 -9 -15 -27 -148 -161 -175 -176 -190 -203 -278 -283 -311 -318 -334 -339 -355 -362 -390 -395 0
-6 -9 -15 -27 -148 -161 -175 -176 -190 -203 -271 -292 -318 -325 -334 -339 -348 -355 -381 -402 0
-6 -9 -15 -27 -148 -161 -175 -176 -190 -203 -269 -285 -292 -320 -325 -348 -353 -381 -388 -404 0
-6 -9 -15 -27 -148 -161 -175 -176 -190 -203 -269 -278 -285 -311 -332 -341 -362 -388 -395 -404 0
-6 -8 -22 -23 -144 -171 -172 -179 -180 -207 -280 -283 -288 -313 -331 -342 -360 -385 -390 -393 0
-6 -8 -22 -23 -144 -171 -172 -179 -180 -207 -280 -282 -315 -320 -331 -342 -353 -358 -391 -393 0
-6 -8 -22 -23 -144 -171 -172 -179 -180 -207 -280 -282 -313 -325 -330 -343 -348 -360 -391 -393 0
-6 -8 -22 -23 -144 -171 -172 -179 -180 -207 -278 -283 -315 -323 -331 -342 -350 -358 -390 -395 0
-6 -8 -22 -23 -144 -171 -172 -179 -180 -207 -278 -283 -313 -321 -330 -343 -352 -360 -390 -395 0
-6 -8 -22 -23 -144 -171 -172 -179 -180 -207 -278 -282 -290 -315 -330 -343 -358 -383 -391 -395 0
-6 -8 -22 -23 -144 -171 -172 -179 -180 -207 -273 -288 -320 -323 -331 -342 -350 -353 -385 -400 0
-6 -8 -22 -23 -144 -171 -172 -179 -180 -207 -273 -288 -313 -321 -325 -348 -352 -360 -385 -400 0
-6 -8 -22 -23 -144 -171 -172 -179 -180 -207 -273 -282 -290 -320 -325 -348 -353 -383 -391 -400 0
-6 -8 -22 -23 -144 -171 -172 -179 -180 -207 -273 -278 -290 -321 -323 -350 -352 -383 -395 -400 0
-6 -8 -22 -23 -144 -171 -172 -179 -180 -207 -273 -278 -282 -313 -331 -342 -360 -391 -395 -400 0
-6 -8 -22 -23 -144 -171 -172 -179 -180 -207 -272 -290 -321 -325 -330 -343 -348 -352 -383 -401 0
-6 -8 -22 -23 -144 -171 -172 -179 -180 -207 -272 -290 -315 -320 -323 -350 -353 -358 -383 -401 0
-6 -8 -22 -23 -144 -171 -172 -179 -180 -207 -272 -283 -288 -321 -323 -350 -352 -385 -390 -401 0
-6 -8 -22 -23 -144 -171 -172 -179 -180 -207 -272 -280 -288 -320 -325 -348 -353 -385 -393 -401 0
-6 -8 -22 -23 -144 -171 -172 -179 -180 -207 -272 -280 -283 -315 -330 -343 -358 -390 -393 -401 0
-6 -8 -20 -25 -144 -169 -174 -177 -182 -207 -280 -282 -317 -318 -331 -342 -355 -356 -391 -393 0
-6 -8 -20 -25 -144 -169 -174 -177 -182 -207 -275 -286 -318 -323 -331 -342 -350 -355 -387 -398 0
-6 -8 -20 -25 -144 -169 -174 -177 -182 -207 -272 -285 -286 -321 -323 -350 -352 -387 -388 -401 0
-6 -8 -20 -25 -144 -169 -174 -177 -182 -207 -272 -280 -285 -317 -328 -345 -356 -388 -393 -401 0
-6 -8 -19 -27 -144 -167 -175 -176 -184 -207 -278 -283 -317 -318 -330 -343 -355 -356 -390 -395 0
-6 -8 -19 -27 -144 -167 -175 -176 -184 -207 -275 -286 -318 -325 -330 -343 -348 -355 -387 -398 0
-6 -8 -19 -27 -144 -167 -175 -176 -184 -207 -273 -285 -286 -320 -325 -348 -353 -387 -388 -400 0
-6 -8 -19 -27 -144 -167 -175 -176 -184 -207 -273 -278 -285 -317 -328 -345 -356 -388 -395 -400 0
-5 -63 -66 -81 -90 -91 -101 -179 -194 -197 -239 -253 -270 -272 -297 -376 -401 -403 -420 -434 0
-5 -63 -66 -81 -90 -91 -101 -179 -194 -197 -235 -259 -268 -274 -291 -382 -399 -405 -414 -438 0
-5 -63 -66 -81 -90 -91 -101 -179 -194 -197 -235 -237 -253 -268 -297 -376 -405 -420 -436 -438 0
-5 -63 -66 -81 -90 -91 -101 -179 -194 -197 -233 -239 -259 -272 -291 -382 -401 -414 -434 -440 0
-5 -62 -66 -82 -89 -91 -102 -178 -194 -198 -240 -252 -271 -272 -297 -376 -401 -402 -421 -433 0
-5 -62 -66 -82 -89 -91 -102 -178 -194 -198 -236 -258 -268 -275 -291 -382 -398 -405 -415 -437 0
-5 -62 -66 -82 -89 -91 -102 -178 -194 -198 -236 -237 -252 -268 -297 -376 -405 -421 -436 -437 0
-5 -62 -66 -82 -89 -91 -102 -178 -194 -198 -233 -240 -258 -272 -291 -382 -401 -415 -433 -440 0
-5 -59 -73 -78 -87 -95 -98 -182 -187 -201 -246 -252 -259 -267 -300 -373 -406 -414 -421 -427 0
-5 -59 -73 -78 -87 -95 -98 -182 -187 -201 -246 -247 -270 -275 -300 -373 -398 -403 -426 -427 0
-5 -59 -73 -78 -87 -95 -98 -182 -187 -201 -246 -247 -267 -287 -294 -379 -386 -406 -426 -427 0
-5 -59 -73 -78 -87 -95 -98 -182 -187 -201 -240 -252 -270 -282 -300 -373 -391 -403 -421 -433 0
-5 -59 -73 -78 -87 -95 -98 -182 -187 -201 -240 -252 -267 -281 -294 -379 -392 -406 -421 -433 0
-5 -59 -73 -78 -87 -95 -98 -182 -187 -201 -240 -247 -265 -270 -294 -379 -403 -408 -426 -433 0
-5 -59 -73 -78 -87 -95 -98 -182 -187 -201 -235 -259 -275 -282 -300 -373 -391 -398 -414 -438 0
-5 -59 -73 -78 -87 -95 -98 -182 -187 -201 -235 -259 -267 -281 -287 -386 -392 -406 -414 -438 0
-5 -59 -73 -78 -87 -95 -98 -182 -187 -201 -235 -247 -265 -275 -287 -386 -398 -408 -426 -438 0
-5 -59 -73 -78 -87 -95 -98 -182 -187 -201 -235 -240 -265 -281 -282 -391 -392 -408 -433 -438 0
-5 -59 -73 -78 -87 -95 -98 -182 -187 -201 -235 -240 -247 -267 -300 -373 -406 -426 -433 -438 0
-5 -59 -73 -78 -87 -95 -98 -182 -187 -201 -232 -265 -281 -287 -294 -379 -386 -392 -408 -441 0
-5 -59 -73 -78 -87 -95 -98 -182 -187 -201 -232 -265 -270 -275 -282 -391 -398 -403 -408 -441 0
-5 -59 -73 -78 -87 -95 -98 -182 -187 -201 -232 -252 -259 -281 -282 -391 -392 -414 -421 -441 0
-5 -59 -73 -78 -87 -95 -98 -182 -187 -201 -232 -246 -259 -275 -287 -386 -398 -414 -427 -441 0
-5 -59 -73 -78 -87 -95 -98 -182 -187 -201 -232 -246 -252 -270 -294 -379 -403 -421 -427 -441 0
-5 -59 -72 -79 -87 -94 -99 -181 -188 -201 -246 -253 -258 -267 -300 -373 -406 -415 -420 -427 0
-5 -59 -72 -79 -87 -94 -99 -181 -188 -201 -246 -247 -271 -274 -300 -373 -399 -402 -426 -427 0
-5 -59 -72 -79 -87 -94 -99 -181 -188 -201 -246 -247 -267 -288 -293 -380 -385 -406 -426 -427 0
-5 -59 -72 -79 -87 -94 -99 -181 -188 -201 -239 -253 -271 -282 -300 -373 -391 -402 -420 -434 0
-5 -59 -72 -79 -87 -94 -99 -181 -188 -201 -239 -253 -267 -281 -293 -380 -392 -406 -420 -434 0
-5 -59 -72 -79 -87 -94 -99 -181 -188 -201 -239 -247 -265 -271 -293 -380 -402 -408 -426 -434 0
-5 -59 -72 -79 -87 -94 -99 -181 -188 -201 -236 -258 -274 -282 -300 -373 -391 -399 -415 -437 0
-5 -59 -72 -79 -87 -94 -99 -181 -188 -201 -236 -258 -267 -281 -288 -385 -392 -406 -415 -437 0
-5 -59 -72 -79 -87 -94 -99 -181 -188 -201 -236 -247 -265 -274 -288 -385 -399 -408 -426 -437 0
-5 -59 -72 -79 -87 -94 -99 -181 -188 -201 -236 -239 -265 -281 -282 -391 -392 -408 -434 -437 0
-5 -59 -72 -79 -87 -94 -99 -181 -188 -201 -236 -239 -247 -267 -300 -373 -406 -426 -434 -437 0
-5 -59 -72 -79 -87 -94 -99 -181 -188 -201 -232 -265 -281 -288 -293 -380 -385 -392 -408 -441 0
-5 -59 -72 -79 -87 -94 -99 -181 -188 -201 -232 -265 -271 -274 -282 -391 -399 -402 -408 -441 0
-5 -59 -72 -79 -87 -94 -99 -181 -188 -201 -232 -253 -258 -281 -282 -391 -392 -415 -420 -441 0
-5 -59 -72 -79 -87 -94 -99 -181 -188 -201 -232 -246 -258 -274 -288 -385 -399 -415 -427 -441 0
-5 -59 -72 -79 -87 -94 -99 -181 -188 -201 -232 -246 -253 -271 -293 -380 -402 -420 -427 -441 0
-5 -59 -66 -84 -87 -91 -105 -176 -194 -201 -240 -253 -258 -270 -294 -379 -403 -415 -420 -433 0
-5 -59 -66 -84 -87 -91 -105 -176 -194 -201 -240 -252 -271 -274 -294 -379 -399 -402 -421 -433 0
-5 -59 -66 -84 -87 -91 -105 -176 -194 -201 -240 -252 -270 -288 -293 -380 -385 -403 -421 -433 0
-5 -59 -66 -84 -87 -91 -105 -176 -194 -201 -239 -253 -271 -287 -294 -379 -386 -402 -420 -434 0
-5 -59 -66 -84 -87 -91 -105 -176 -194 -201 -239 -253 -270 -275 -293 -380 -398 -403 -420 -434 0
-5 -59 -66 -84 -87 -91 -105 -176 -194 -201 -239 -252 -259 -271 -293 -380 -402 -414 -421 -434 0
-5 -59 -66 -84 -87 -91 -105 -176 -194 -201 -236 -258 -274 -287 -294 -379 -386 -399 -415 -437 0
-5 -59 -66 -84 -87 -91 -105 -176 -194 -201 -236 -258 -270 -275 -288 -385 -398 -403 -415 -437 0
-5 -59 -66 -84 -87 -91 -105 -176 -194 -201 -236 -252 -259 -274 -288 -385 -399 -414 -421 -437 0
-5 -59 -66 -84 -87 -91 -105 -176 -194 -201 -236 -239 -259 -275 -287 -386 -398 -414 -434 -437 0
-5 -59 -66 -84 -87 -91 -105 -176 -194 -201 -236 -239 -252 -270 -294 -379 -403 -421 -434 -437 0
-5 -59 -66 -84 -87 -91 -105 -176 -194 -201 -235 -259 -275 -288 -293 -380 -385 -398 -414 -438 0
-5 -59 -66 -84 -87 -91 -105 -176 -194 -201 -235 -259 -271 -274 -287 -386 -399 -402 -414 -438 0
-5 -59 -66 -84 -87 -91 -105 -176 -194 -201 -235 -253 -258 -275 -287 -386 -398 -415 -420 -438 0
-5 -59 -66 -84 -87 -91 -105 -176 -194 -201 -235 -240 -258 -274 -288 -385 -399 -415 -433 -438 0
-5 -59 -66 -84 -87 -91 -105 -176 -194 -201 -235 -240 -253 -271 -293 -380 -402 -420 -433 -438 0
-5 -56 -69 -84 -86 -92 -105 -176 -191 -204 -236 -258 -270 -278 -285 -388 -395 -403 -415 -437 0
-5 -56 -69 -84 -86 -92 -105 -176 -191 -204 -236 -242 -259 -278 -284 -389 -395 -414 -431 -437 0
-5 -56 -69 -84 -86 -92 -105 -176 -191 -204 -235 -259 -271 -277 -284 -389 -396 -402 -414 -438 0
-5 -56 -69 -84 -86 -92 -105 -176 -191 -204 -235 -243 -258 -277 -285 -388 -396 -415 -430 -438 0
-5 -52 -75 -84 -85 -96 -105 -176 -185 -208 -240 -252 -274 -278 -285 -388 -395 -399 -421 -433 0
-5 -52 -75 -84 -85 -96 -105 -176 -185 -208 -240 -242 -253 -278 -284 -389 -395 -420 -431 -433 0
-5 -52 -75 -84 -85 -96 -105 -176 -185 -208 -239 -253 -275 -277 -284 -389 -396 -398 -420 -434 0
-5 -52 -75 -84 -85 -96 -105 -176 -185 -208 -239 -243 -252 -277 -285 -388 -396 -421 -430 -434 0
-5 -34 -35 -45 -119 -122 -137 -179 -194 -197 -239 -253 -306 -331 -333 -340 -342 -367 -420 -434 0
-5 -34 -35 -45 -119 -122 -137 -179 -194 -197 -235 -259 -312 -329 -335 -338 -344 -361 -414 -438 0
-5 -34 -35 -45 -119 -122 -137 -179 -194 -197 -235 -237 -253 -306 -335 -338 -367 -420 -436 -438 0
-5 -34 -35 -45 -119 -122 -137 -179 -194 -197 -233 -239 -259 -312 -331 -342 -361 -414 -434 -440 0
-5 -33 -35 -46 -118 -122 -138 -178 -194 -198 -240 -252 -306 -331 -332 -341 -342 -367 -421 -433 0
-5 -33 -35 -46 -118 -122 -138 -178 -194 -198 -236 -258 -312 -328 -335 -338 -345 -361 -415 -437 0
-5 -33 -35 -46 -118 -122 -138 -178 -194 -198 -236 -237 -252 -306 -335 -338 -367 -421 -436 -437 0
-5 -33 -35 -46 -118 -122 -138 -178 -194 -198 -233 -240 -258 -312 -331 -342 -361 -415 -433 -440 0
-5 -31 -39 -42 -115 -129 -134 -182 -187 -201 -246 -252 -259 -303 -336 -337 -370 -414 -421 -427 0
-5 -31 -39 -42 -115 -129 -134 -182 -187 -201 -246 -247 -309 -316 -336 -337 -357 -364 -426 -427 0
-5 -31 -39 -42 -115 -129 -134 -182 -187 -201 -246 -247 -303 -328 -333 -340 -345 -370 -426 -427 0
-5 -31 -39 -42 -115 -129 -134 -182 -187 -201 -240 -252 -309 -322 -336 -337 -351 -364 -421 -433 0
-5 -31 -39 -42 -115 -129 -134 -182 -187 -201 -240 -252 -303 -321 -333 -340 -352 -370 -421 -433 0
-5 -31 -39 -42 -115 -129 -134 -182 -187 -201 -240 -247 -265 -309 -333 -340 -364 -408 -426 -433 0
-5 -31 -39 -42 -115 -129 -134 -182 -187 -201 -235 -259 -316 -322 -336 -337 -351 -357 -414 -438 0
-5 -31 -39 -42 -115 -129 -134 -182 -187 -201 -235 -259 -303 -321 -328 -345 -352 -370 -414 -438 0
-5 -31 -39 -42 -115 -129 -134 -182 -187 -201 -235 -247 -265 -316 -328 -345 -357 -408 -426 -438 0
-5 -31 -39 -42 -115 -129 -134 -182 -187 -201 -235 -240 -265 -321 -322 -351 -352 -408 -433 -438 0
-5 -31 -39 -42 -115 -129 -134 -182 -187 -201 -235 -240 -247 -303 -336 -337 -370 -426 -433 -438 0
-5 -31 -39 -42 -115 -129 -134 -182 -187 -201 -232 -265 -321 -328 -333 -340 -345 -352 -408 -441 0
-5 -31 -39 -42 -115 -129 -134 -182 -187 -201 -232 -265 -309 -316 -322 -351 -357 -364 -408 -441 0
-5 -31 -39 -42 -115 -129 -134 -182 -187 -201 -232 -252 -259 -321 -322 -351 -352 -414 -421 -441 0
-5 -31 -39 -42 -115 -129 -134 -182 -187 -201 -232 -246 -259 -316 -328 -345 -357 -414 -427 -441 0
-5 -31 -39 -42 -115 -129 -134 -182 -187 -201 -232 -246 -252 -309 -333 -340 -364 -421 -427 -441 0
-5 -31 -38 -43 -115 -128 -135 -181 -188 -201 -246 -253 -258 -303 -336 -337 -370 -415 -420 -427 0
-5 -31 -38 -43 -115 -128 -135 -181 -188 -201 -246 -247 -310 -315 -336 -337 -358 -363 -426 -427 0
-5 -31 -38 -43 -115 -128 -135 -181 -188 -201 -246 -247 -303 -329 -332 -341 -344 -370 -426 -427 0
-5 -31 -38 -43 -115 -128 -135 -181 -188 -201 -239 -253 -310 -322 -336 -337 -351 -363 -420 -434 0
-5 -31 -38 -43 -115 -128 -135 -181 -188 -201 -239 -253 -303 -321 -332 -341 -352 -370 -420 -434 0
-5 -31 -38 -43 -115 -128 -135 -181 -188 -201 -239 -247 -265 -310 -332 -341 -363 -408 -426 -434 0
-5 -31 -38 -43 -115 -128 -135 -181 -188 -201 -236 -258 -315 -322 -336 -337 -351 -358 -415 -437 0
-5 -31 -38 -43 -115 -128 -135 -181 -188 -201 -236 -258 -303 -321 -329 -344 -352 -370 -415 -437 0
-5 -31 -38 -43 -115 -128 -135 -181 -188 -201 -236 -247 -265 -315 -329 -344 -358 -408 -426 -437 0
-5 -31 -38 -43 -115 -128 -135 -181 -188 -201 -236 -239 -265 -321 -322 -351 -352 -408 -434 -437 0
-5 -31 -38 -43 -115 -128 -135 -181 -188 -201 -236 -239 -247 -303 -336 -337 -370 -426 -434 -437 0
-5 -31 -38 -43 -115 -128 -135 -181 -188 -201 -232 -265 -321 -329 -332 -341 -344 -352 -408 -441 0
-5 -31 -38 -43 -115 -128 -135 -181 -188 -201 -232 -265 -310 -315 -322 -351 -358 -363 -408 -441 0
-5 -31 -38 -43 -115 -128 -135 -181 -188 -201 -232 -253 -258 -321 -322 -351 -352 -415 -420 -441 0
-5 -31 -38 -43 -115 -128 -135 -181 -188 -201 -232 -246 -258 -315 -329 -344 -358 -415 -427 -441 0
-5 -31 -38 -43 -115 -128 -135 -181 -188 -201 -232 -246 -253 -310 -332 -341 -363 -420 -427 -441 0
-5 -31 -35 -49 -115 -122 -140 -176 -194 -201 -240 -253 -258 -309 -333 -340 -364 -415 -420 -433 0
-5 -31 -35 -49 -115 -122 -140 -176 -194 -201 -240 -252 -310 -315 -333 -340 -358 -363 -421 -433 0
-5 -31 -35 -49 -115 -122 -140 -176 -194 -201 -240 -252 -309 -329 -332 -341 -344 -364 -421 -433 0
-5 -31 -35 -49 -115 -122 -140 -176 -194 -201 -239 -253 -310 -328 -333 -340 -345 -363 -420 -434 0
-5 -31 -35 -49 -115 -122 -140 -176 -194 -201 -239 -253 -309 -316 -332 -341 -357 -364 -420 -434 0
-5 -31 -35 -49 -115 -122 -140 -176 -194 -201 -239 -252 -259 -310 -332 -341 -363 -414 -421 -434 0
-5 -31 -35 -49 -115 -122 -140 -176 -194 -201 -236 -258 -315 -328 -333 -340 -345 -358 -415 -437 0
-5 -31 -35 -49 -115 -122 -140 -176 -194 -201 -236 -258 -309 -316 -329 -344 -357 -364 -415 -437 0
-5 -31 -35 -49 -115 -122 -140 -176 -194 -201 -236 -252 -259 -315 -329 -344 -358 -414 -421 -437 0
-5 -31 -35 -49 -115 -122 -140 -176 -194 -201 -236 -239 -259 -316 -328 -345 -357 -414 -434 -437 0
-5 -31 -35 -49 -115 -122 -140 -176 -194 -201 -236 -239 -252 -309 -333 -340 -364 -421 -434 -437 0
-5 -31 -35 -49 -115 -122 -140 -176 -194 -201 -235 -259 -316 -329 -332 -341 -344 -357 -414 -438 0
-5 -31 -35 -49 -115 -122 -140 -176 -194 -201 -235 -259 -310 -315 -328 -345 -358 -363 -414 -438 0
-5 -31 -35 -49 -115 -122 -140 -176 -194 -201 -235 -253 -258 -316 -328 -345 -357 -415 -420 -438 0
-5 -31 -35 -49 -115 -122 -140 -176 -194 -201 -235 -240 -258 -315 -329 -344 -358 -415 -433 -438 0
-5 -31 -35 -49 -115 -122 -140 -176 -194 -201 -235 -240 -253 -310 -332 -341 -363 -420 -433 -438 0
-5 -30 -36 -49 -112 -125 -140 -176 -191 -204 -236 -258 -318 -325 -333 -340 -348 -355 -415 -437 0
-5 -30 -36 -49 -112 -125 -140 -176 -191 -204 -236 -242 -259 -319 -325 -348 -354 -414 -431 -437 0
-5 -30 -36 -49 -112 -125 -140 -176 -191 -204 -235 -259 -319 -326 -332 -341 -347 -354 -414 -438 0
-5 -30 -36 -49 -112 -125 -140 -176 -191 -204 -235 -243 -258 -318 -326 -347 -355 -415 -430 -438 0
-5 -29 -40 -49 -108 -131 -140 -176 -185 -208 -240 -252 -318 -325 -329 -344 -348 -355 -421 -433 0
-5 -29 -40 -49 -108 -131 -140 -176 -185 -208 -240 -242 -253 -319 -325 -348 -354 -420 -431 -433 0
-5 -29 -40 -49 -108 -131 -140 -176 -185 -208 -239 -253 -319 -326 -328 -345 -347 -354 -420 -434 0
-5 -29 -40 -49 -108 -131 -140 -176 -185 -208 -239 -243 -252 -318 -326 -347 -355 -421 -430 -434 0
-5 -13 -17 -19 -154 -163 -166 -185 -188 -197 -277 -285 -303 -329 -335 -338 -344 -370 -388 -396 0
-5 -13 -17 -19 -154 -163 -166 -185 -188 -197 -274 -285 -300 -306 -335 -338 -367 -373 -388 -399 0
-5 -13 -17 -19 -154 -163 -166 -185 -188 -197 -268 -297 -303 -318 -329 -344 -355 -370 -376 -405 0
-5 -13 -17 -19 -154 -163 -166 -185 -188 -197 -268 -274 -300 -318 -326 -347 -355 -373 -399 -405 0
-5 -13 -15 -21 -154 -160 -169 -182 -191 -197 -277 -285 -303 -331 -333 -340 -342 -370 -388 -396 0
-5 -13 -15 -21 -154 -160 -169 -182 -191 -197 -272 -291 -303 -318 -333 -340 -355 -370 -382 -401 0
-5 -13 -15 -21 -154 -160 -169 -182 -191 -197 -270 -285 -300 -312 -331 -342 -361 -373 -388 -403 0
-5 -13 -15 -21 -154 -160 -169 -182 -191 -197 -270 -272 -300 -318 -326 -347 -355 -373 -401 -403 0
-5 -13 -14 -24 -154 -157 -172 -179 -194 -197 -274 -291 -294 -306 -335 -338 -367 -379 -382 -399 0
-5 -13 -14 -24 -154 -157 -172 -179 -194 -197 -274 -288 -309 -312 -335 -338 -361 -364 -385 -399 0
-5 -13 -14 -24 -154 -157 -172 -179 -194 -197 -274 -288 -306 -331 -333 -340 -342 -367 -385 -399 0
-5 -13 -14 -24 -154 -157 -172 -179 -194 -197 -272 -291 -309 -329 -335 -338 -344 -364 -382 -401 0
-5 -13 -14 -24 -154 -157 -172 -179 -194 -197 -272 -291 -306 -315 -333 -340 -358 -367 -382 -401 0
-5 -13 -14 -24 -154 -157 -172 -179 -194 -197 -272 -288 -297 -309 -333 -340 -364 -376 -385 -401 0
-5 -13 -14 -24 -154 -157 -172 -179 -194 -197 -270 -294 -312 -329 -335 -338 -344 -361 -379 -403 0
-5 -13 -14 -24 -154 -157 -172 -179 -194 -197 -270 -294 -306 -315 -331 -342 -358 -367 -379 -403 0
-5 -13 -14 -24 -154 -157 -172 -179 -194 -197 -270 -288 -297 -312 -331 -342 -361 -376 -385 -403 0
-5 -13 -14 -24 -154 -157 -172 -179 -194 -197 -270 -272 -297 -315 -329 -344 -358 -376 -401 -403 0
-5 -13 -14 -24 -154 -157 -172 -179 -194 -197 -270 -272 -288 -306 -335 -338 -367 -385 -401 -403 0
-5 -13 -14 -24 -154 -157 -172 -179 -194 -197 -268 -297 -315 -331 -333 -340 -342 -358 -376 -405 0
-5 -13 -14 -24 -154 -157 -172 -179 -194 -197 -268 -297 -309 -312 -329 -344 -361 -364 -376 -405 0
-5 -13 -14 -24 -154 -157 -172 -179 -194 -197 -268 -291 -294 -315 -329 -344 -358 -379 -382 -405 0
-5 -13 -14 -24 -154 -157 -172 -179 -194 -197 -268 -274 -294 -312 -331 -342 -361 -379 -399 -405 0
-5 -13 -14 -24 -154 -157 -172 -179 -194 -197 -268 -274 -291 -309 -333 -340 -364 -382 -399 -405 0
-5 -12 -18 -19 -153 -164 -166 -185 -187 -198 -278 -284 -303 -328 -335 -338 -345 -370 -389 -395 0
-5 -12 -18 -19 -153 -164 -166 -185 -187 -198 -275 -284 -300 -306 -335 -338 -367 -373 -389 -398 0
-5 -12 -18 -19 -153 -164 -166 -185 -187 -198 -268 -297 -303 -319 -328 -345 -354 -370 -376 -405 0
-5 -12 -18 -19 -153 -164 -166 -185 -187 -198 -268 -275 -300 -319 -325 -348 -354 -373 -398 -405 0
-5 -12 -15 -22 -153 -160 -170 -181 -191 -198 -278 -284 -303 -331 -332 -341 -342 -370 -389 -395 0
-5 -12 -15 -22 -153 -160 -170 -181 -191 -198 -272 -291 -303 -319 -332 -341 -354 -370 -382 -401 0
-5 -12 -15 -22 -153 -160 -170 -181 -191 -198 -271 -284 -300 -312 -331 -342 -361 -373 -389 -402 0
-5 -12 -15 -22 -153 -160 -170 -181 -191 -198 -271 -272 -300 -319 -325 -348 -354 -373 -401 -402 0
-5 -12 -14 -25 -153 -157 -173 -178 -194 -198 -275 -291 -293 -306 -335 -338 -367 -380 -382 -398 0
-5 -12 -14 -25 -153 -157 -173 -178 -194 -198 -275 -287 -310 -312 -335 -338 -361 -363 -386 -398 0
-5 -12 -14 -25 -153 -157 -173 -178 -194 -198 -275 -287 -306 -331 -332 -341 -342 -367 -386 -398 0
-5 -12 -14 -25 -153 -157 -173 -178 -194 -198 -272 -291 -310 -328 -335 -338 -345 -363 -382 -401 0
-5 -12 -14 -25 -153 -157 -173 -178 -194 -198 -272 -291 -306 -316 -332 -341 -357 -367 -382 -401 0
-5 -12 -14 -25 -153 -157 -173 -178 -194 -198 -272 -287 -297 -310 -332 -341 -363 -376 -386 -401 0
-5 -12 -14 -25 -153 -157 -173 -178 -194 -198 -271 -293 -312 -328 -335 -338 -345 -361 -380 -402 0
-5 -12 -14 -25 -153 -157 -173 -178 -194 -198 -271 -293 -306 -316 -331 -342 -357 -367 -380 -402 0
-5 -12 -14 -25 -153 -157 -173 -178 -194 -198 -271 -287 -297 -312 -331 -342 -361 -376 -386 -402 0
-5 -12 -14 -25 -153 -157 -173 -178 -194 -198 -271 -272 -297 -316 -328 -345 -357 -376 -401 -402 0
-5 -12 -14 -25 -153 -157 -173 -178 -194 -198 -271 -272 -287 -306 -335 -338 -367 -386 -401 -402 0
-5 -12 -14 -25 -153 -157 -173 -178 -194 -198 -268 -297 -316 -331 -332 -341 -342 -357 -376 -405 0
-5 -12 -14 -25 -153 -157 -173 -178 -194 -198 -268 -297 -310 -312 -328 -345 -361 -363 -376 -405 0
-5 -12 -14 -25 -153 -157 -173 -178 -194 -198 -268 -291 -293 -316 -328 -345 -357 -380 -382 -405 0
-5 -12 -14 -25 -153 -157 -173 -178 -194 -198 -268 -275 -293 -312 -331 -342 -361 -380 -398 -405 0
-5 -12 -14 -25 -153 -157 -173 -178 -194 -198 -268 -275 -291 -310 -332 -341 -363 -382 -398 -405 0
-5 -10 -18 -21 -150 -164 -169 -182 -187 -201 -281 -287 -294 -303 -336 -337 -370 -379 -386 -392 0
-5 -10 -18 -21 -150 -164 -169 -182 -187 -201 -281 -282 -309 -316 -336 -337 -357 -364 -391 -392 0
-5 -10 -18 -21 -150 -164 -169 -182 -187 -201 -281 -282 -303 -328 -333 -340 -345 -370 -391 -392 0
-5 -10 -18 -21 -150 -164 -169 -182 -187 -201 -275 -287 -309 -322 -336 -337 -351 -364 -386 -398 0
-5 -10 -18 -21 -150 -164 -169 -182 -187 -201 -275 -287 -303 -321 -333 -340 -352 -370 -386 -398 0
-5 -10 -18 -21 -150 -164 -169 -182 -187 -201 -275 -282 -300 -309 -333 -340 -364 -373 -391 -398 0
-5 -10 -18 -21 -150 -164 -169 -182 -187 -201 -270 -294 -316 -322 -336 -337 -351 -357 -379 -403 0
-5 -10 -18 -21 -150 -164 -169 -182 -187 -201 -270 -294 -303 -321 -328 -345 -352 -370 -379 -403 0
-5 -10 -18 -21 -150 -164 -169 -182 -187 -201 -270 -282 -300 -316 -328 -345 -357 -373 -391 -403 0
-5 -10 -18 -21 -150 -164 -169 -182 -187 -201 -270 -275 -300 -321 -322 -351 -352 -373 -398 -403 0
-5 -10 -18 -21 -150 -164 -169 -182 -187 -201 -270 -275 -282 -303 -336 -337 -370 -391 -398 -403 0
-5 -10 -18 -21 -150 -164 -169 -182 -187 -201 -267 -300 -321 -328 -333 -340 -345 -352 -373 -406 0
-5 -10 -18 -21 -150 -164 -169 -182 -187 -201 -267 -300 -309 -316 -322 -351 -357 -364 -373 -406 0
-5 -10 -18 -21 -150 -164 -169 -182 -187 -201 -267 -287 -294 -321 -322 -351 -352 -379 -386 -406 0
-5 -10 -18 -21 -150 -164 -169 -182 -187 -201 -267 -281 -294 -316 -328 -345 -357 -379 -392 -406 0
-5 -10 -18 -21 -150 -164 -169 -182 -187 -201 -267 -281 -287 -309 -333 -340 -364 -386 -392 -406 0
-5 -10 -17 -22 -150 -163 -170 -181 -188 -201 -281 -288 -293 -303 -336 -337 -370 -380 -385 -392 0
-5 -10 -17 -22 -150 -163 -170 -181 -188 -201 -281 -282 -310 -315 -336 -337 -358 -363 -391 -392 0
-5 -10 -17 -22 -150 -163 -170 -181 -188 -201 -281 -282 -303 -329 -332 -341 -344 -370 -391 -392 0
-5 -10 -17 -22 -150 -163 -170 -181 -188 -201 -274 -288 -310 -322 -336 -337 -351 -363 -385 -399 0
-5 -10 -17 -22 -150 -163 -170 -181 -188 -201 -274 -288 -303 -321 -332 -341 -352 -370 -385 -399 0
-5 -10 -17 -22 -150 -163 -170 -181 -188 -201 -274 -282 -300 -310 -332 -341 -363 -373 -391 -399 0
-5 -10 -17 -22 -150 -163 -170 -181 -188 -201 -271 -293 -315 -322 -336 -337 -351 -358 -380 -402 0
-5 -10 -17 -22 -150 -163 -170 -181 -188 -201 -271 -293 -303 -321 -329 -344 -352 -370 -380 -402 0
-5 -10 -17 -22 -150 -163 -170 -181 -188 -201 -271 -282 -300 -315 -329 -344 -358 -373 -391 -402 0
-5 -10 -17 -22 -150 -163 -170 -181 -188 -201 -271 -274 -300 -321 -322 -351 -352 -373 -399 -402 0
-5 -10 -17 -22 -150 -163 -170 -181 -188 -201 -271 -274 -282 -303 -336 -337 -370 -391 -399 -402 0
-5 -10 -17 -22 -150 -163 -170 -181 -188 -201 -267 -300 -321 -329 -332 -341 -344 -352 -373 -406 0
-5 -10 -17 -22 -150 -163 -170 -181 -188 -201 -267 -300 -310 -315 -322 -351 -358 -363 -373 -406 0
-5 -10 -17 -22 -150 -163 -170 -181 -188 -201 -267 -288 -293 -321 -322 -351 -352 -380 -385 -406 0
-5 -10 -17 -22 -150 -163 -170 -181 -188 -201 -267 -281 -293 -315 -329 -344 -358 -380 -392 -406 0
-5 -10 -17 -22 -150 -163 -170 -181 -188 -201 -267 -281 -288 -310 -332 -341 -363 -385 -392 -406 0
-5 -10 -14 -28 -150 -157 -175 -176 -194 -201 -275 -288 -293 -309 -333 -340 -364 -380 -385 -398 0
-5 -10 -14 -28 -150 -157 -175 -176 -194 -201 -275 -287 -310 -315 -333 -340 -358 -363 -386 -398 0
-5 -10 -14 -28 -150 -157 -175 -176 -194 -201 -275 -287 -309 -329 -332 -341 -344 -364 -386 -398 0
-5 -10 -14 -28 -150 -157 -175 -176 -194 -201 -274 -288 -310 -328 -333 -340 -345 -363 -385 -399 0
-5 -10 -14 -28 -150 -157 -175 -176 -194 -201 -274 -288 -309 -316 -332 -341 -357 -364 -385 -399 0
-5 -10 -14 -28 -150 -157 -175 -176 -194 -201 -274 -287 -294 -310 -332 -341 -363 -379 -386 -399 0
-5 -10 -14 -28 -150 -157 -175 -176 -194 -201 -271 -293 -315 -328 -333 -340 -345 -358 -380 -402 0
-5 -10 -14 -28 -150 -157 -175 -176 -194 -201 -271 -293 -309 -316 -329 -344 -357 -364 -380 -402 0
-5 -10 -14 -28 -150 -157 -175 -176 -194 -201 -271 -287 -294 -315 -329 -344 -358 -379 -386 -402 0
-5 -10 -14 -28 -150 -157 -175 -176 -194 -201 -271 -274 -294 -316 -328 -345 -357 -379 -399 -402 0
-5 -10 -14 -28 -150 -157 -175 -176 -194 -201 -271 -274 -287 -309 -333 -340 -364 -386 -399 -402 0
-5 -10 -14 -28 -150 -157 -175 -176 -194 -201 -270 -294 -316 -329 -332 -341 -344 -357 -379 -403 0
-5 -10 -14 -28 -150 -157 -175 -176 -194 -201 -270 -294 -310 -315 -328 -345 -358 -363 -379 -403 0
-5 -10 -14 -28 -150 -157 -175 -176 -194 -201 -270 -288 -293 -316 -328 -345 -357 -380 -385 -403 0
-5 -10 -14 -28 -150 -157 -175 -176 -194 -201 -270 -275 -293 -315 -329 -344 -358 -380 -398 -403 0
-5 -10 -14 -28 -150 -157 -175 -176 -194 -201 -270 -275 -288 -310 -332 -341 -363 -385 -398 -403 0
-5 -9 -18 -24 -147 -164 -172 -179 -187 -204 -278 -284 -306 -321 -333 -340 -352 -367 -389 -395 0
-5 -9 -18 -24 -147 -164 -172 -179 -187 -204 -270 -282 -297 -319 -325 -348 -354 -376 -391 -403 0
-5 -9 -18 -24 -147 -164 -172 -179 -187 -204 -270 -278 -282 -306 -335 -338 -367 -391 -395 -403 0
-5 -9 -18 -24 -147 -164 -172 -179 -187 -204 -268 -297 -321 -325 -333 -340 -348 -352 -376 -405 0
-5 -9 -17 -25 -147 -163 -173 -178 -188 -204 -277 -285 -306 -321 -332 -341 -352 -367 -388 -396 0
-5 -9 -17 -25 -147 -163 -173 -178 -188 -204 -271 -282 -297 -318 -326 -347 -355 -376 -391 -402 0
-5 -9 -17 -25 -147 -163 -173 -178 -188 -204 -271 -277 -282 -306 -335 -338 -367 -391 -396 -402 0
-5 -9 -17 -25 -147 -163 -173 -178 -188 -204 -268 -297 -321 -326 -332 -341 -347 -352 -376 -405 0
-5 -9 -15 -28 -147 -160 -175 -176 -191 -204 -278 -285 -293 -309 -333 -340 -364 -380 -388 -395 0
-5 -9 -15 -28 -147 -160 -175 -176 -191 -204 -278 -284 -310 -318 -333 -340 -355 -363 -389 -395 0
-5 -9 -15 -28 -147 -160 -175 -176 -191 -204 -278 -284 -309 -326 -332 -341 -347 -364 -389 -395 0
-5 -9 -15 -28 -147 -160 -175 -176 -191 -204 -277 -285 -310 -325 -333 -340 -348 -363 -388 -396 0
-5 -9 -15 -28 -147 -160 -175 -176 -191 -204 -277 -285 -309 -319 -332 -341 -354 -364 -388 -396 0
-5 -9 -15 -28 -147 -160 -175 -176 -191 -204 -277 -284 -294 -310 -332 -341 -363 -379 -389 -396 0
-5 -9 -15 -28 -147 -160 -175 -176 -191 -204 -271 -293 -318 -325 -333 -340 -348 -355 -380 -402 0
-5 -9 -15 -28 -147 -160 -175 -176 -191 -204 -271 -293 -309 -319 -326 -347 -354 -364 -380 -402 0
-5 -9 -15 -28 -147 -160 -175 -176 -191 -204 -271 -284 -294 -318 -326 -347 -355 -379 -389 -402 0
-5 -9 -15 -28 -147 -160 -175 -176 -191 -204 -271 -277 -294 -319 -325 -348 -354 -379 -396 -402 0
-5 -9 -15 -28 -147 -160 -175 -176 -191 -204 -271 -277 -284 -309 -333 -340 -364 -389 -396 -402 0
-5 -9 -15 -28 -147 -160 -175 -176 -191 -204 -270 -294 -319 -326 -332 -341 -347 -354 -379 -403 0
-5 -9 -15 -28 -147 -160 -175 -176 -191 -204 -270 -294 -310 -318 -325 -348 -355 -363 -379 -403 0
-5 -9 -15 -28 -147 -160 -175 -176 -191 -204 -270 -285 -293 -319 -325 -348 -354 -380 -388 -403 0
-5 -9 -15 -28 -147 -160 -175 -176 -191 -204 -270 -278 -293 -318 -326 -347 -355 -380 -395 -403 0
-5 -9 -15 -28 -147 -160 -175 -176 -191 -204 -270 -278 -285 -310 -332 -341 -363 -388 -395 -403 0
-5 -8 -22 -24 -143 -170 -172 -179 -181 -208 -278 -284 -312 -321 -329 -344 -352 -361 -389 -395 0
-5 -8 -22 -24 -143 -170 -172 -179 -181 -208 -274 -282 -291 -319 -325 -348 -354 -382 -391 -399 0
-5 -8 -22 -24 -143 -170 -172 -179 -181 -208 -274 -278 -282 -312 -331 -342 -361 -391 -395 -399 0
-5 -8 -22 -24 -143 -170 -172 -179 -181 -208 -272 -291 -321 -325 -329 -344 -348 -352 -382 -401 0
-5 -8 -21 -25 -143 -169 -173 -178 -182 -208 -277 -285 -312 -321 -328 -345 -352 -361 -388 -396 0
-5 -8 -21 -25 -143 -169 -173 -178 -182 -208 -275 -282 -291 -318 -326 -347 -355 -382 -391 -398 0
-5 -8 -21 -25 -143 -169 -173 -178 -182 -208 -275 -277 -282 -312 -331 -342 -361 -391 -396 -398 0
-5 -8 -21 -25 -143 -169 -173 -178 -182 -208 -272 -291 -321 -326 -328 -345 -347 -352 -382 -401 0
-5 -8 -19 -28 -143 -166 -175 -176 -185 -208 -278 -285 -287 -315 -329 -344 -358 -386 -388 -395 0
-5 -8 -19 -28 -143 -166 -175 -176 -185 -208 -278 -284 -316 -318 -329 -344 -355 -357 -389 -395 0
-5 -8 -19 -28 -143 -166 -175 -176 -185 -208 -278 -284 -315 -326 -328 -345 -347 -358 -389 -395 0
-5 -8 -19 -28 -143 -166 -175 -176 -185 -208 -277 -285 -316 -325 -329 -344 -348 -357 -388 -396 0
-5 -8 -19 -28 -143 -166 -175 -176 -185 -208 -277 -285 -315 -319 -328 -345 -354 -358 -388 -396 0
-5 -8 -19 -28 -143 -166 -175 -176 -185 -208 -277 -284 -288 -316 -328 -345 -357 -385 -389 -396 0
-5 -8 -19 -28 -143 -166 -175 -176 -185 -208 -275 -287 -318 -325 -329 -344 -348 -355 -386 -398 0
-5 -8 -19 -28 -143 -166 -175 -176 -185 -208 -275 -287 -315 -319 -326 -347 -354 -358 -386 -398 0
-5 -8 -19 -28 -143 -166 -175 -176 -185 -208 -275 -284 -288 -318 -326 -347 -355 -385 -389 -398 0
-5 -8 -19 -28 -143 -166 -175 -176 -185 -208 -275 -277 -288 -319 -325 -348 -354 -385 -396 -398 0
-5 -8 -19 -28 -143 -166 -175 -176 -185 -208 -275 -277 -284 -315 -329 -344 -358 -389 -396 -398 0
-5 -8 -19 -28 -143 -166 -175 -176 -185 -208 -274 -288 -319 -326 -328 -345 -347 -354 -385 -399 0
-5 -8 -19 -28 -143 -166 -175 -176 -185 -208 -274 -288 -316 -318 -325 -348 -355 -357 -385 -399 0
-5 -8 -19 -28 -143 -166 -175 -176 -185 -208 -274 -285 -287 -319 -325 -348 -354 -386 -388 -399 0
-5 -8 -19 -28 -143 -166 -175 -176 -185 -208 -274 -278 -287 -318 -326 -347 -355 -386 -395 -399 0
-5 -8 -19 -28 -143 -166 -175 -176 -185 -208 -274 -278 -285 -316 -328 -345 -357 -388 -395 -399 0
-4 -61 -65 -81 -90 -91 -103 -179 -195 -199 -239 -255 -270 -273 -297 -376 -400 -403 -418 -434 0
-4 -61 -65 -81 -90 -91 -103 -179 -195 -199 -235 -261 -269 -274 -291 -382 -399 -404 -412 -438 0
-4 -61 -65 -81 -90 -91 -103 -179 -195 -199 -235 -238 -255 -269 -297 -376 -404 -418 -435 -438 0
-4 -61 -65 -81 -90 -91 -103 -179 -195 -199 -234 -239 -261 -273 -291 -382 -400 -412 -434 -439 0
-4 -60 -65 -82 -89 -91 -104 -178 -195 -200 -240 -254 -271 -273 -297 -376 -400 -402 -419 -433 0
-4 -60 -65 -82 -89 -91 -104 -178 -195 -200 -236 -260 -269 -275 -291 -382 -398 -404 -413 -437 0
-4 -60 -65 -82 -89 -91 -104 -178 -195 -200 -236 -238 -254 -269 -297 -376 -404 -419 -435 -437 0
-4 -60 -65 -82 -89 -91 -104 -178 -195 -200 -234 -240 -260 -273 -291 -382 -400 -413 -433 -439 0
-4 -59 -71 -76 -88 -95 -98 -184 -189 -201 -246 -254 -261 -267 -301 -372 -406 -412 -419 -427 0
-4 -59 -71 -76 -88 -95 -98 -184 -189 -201 -246 -248 -270 -275 -301 -372 -398 -403 -425 -427 0
-4 -59 -71 -76 -88 -95 -98 -184 -189 -201 -246 -248 -267 -289 -296 -377 -384 -406 -425 -427 0
-4 -59 -71 -76 -88 -95 -98 -184 -189 -201 -240 -254 -270 -283 -301 -372 -390 -403 -419 -433 0
-4 -59 -71 -76 -88 -95 -98 -184 -189 -201 -240 -254 -267 -281 -296 -377 -392 -406 -419 -433 0
-4 -59 -71 -76 -88 -95 -98 -184 -189 -201 -240 -248 -266 -270 -296 -377 -403 -407 -425 -433 0
-4 -59 -71 -76 -88 -95 -98 -184 -189 -201 -235 -261 -275 -283 -301 -372 -390 -398 -412 -438 0
-4 -59 -71 -76 -88 -95 -98 -184 -189 -201 -235 -261 -267 -281 -289 -384 -392 -406 -412 -438 0
-4 -59 -71 -76 -88 -95 -98 -184 -189 -201 -235 -248 -266 -275 -289 -384 -398 -407 -425 -438 0
-4 -59 -71 -76 -88 -95 -98 -184 -189 -201 -235 -240 -266 -281 -283 -390 -392 -407 -433 -438 0
-4 -59 -71 -76 -88 -95 -98 -184 -189 -201 -235 -240 -248 -267 -301 -372 -406 -425 -433 -438 0
-4 -59 -71 -76 -88 -95 -98 -184 -189 -201 -232 -266 -281 -289 -296 -377 -384 -392 -407 -441 0
-4 -59 -71 -76 -88 -95 -98 -184 -189 -201 -232 -266 -270 -275 -283 -390 -398 -403 -407 -441 0
-4 -59 -71 -76 -88 -95 -98 -184 -189 -201 -232 -254 -261 -281 -283 -390 -392 -412 -419 -441 0
-4 -59 -71 -76 -88 -95 -98 -184 -189 -201 -232 -246 -261 -275 -289 -384 -398 -412 -427 -441 0
-4 -59 -71 -76 -88 -95 -98 -184 -189 -201 -232 -246 -254 -270 -296 -377 -403 -419 -427 -441 0
-4 -59 -70 -77 -88 -94 -99 -183 -190 -201 -246 -255 -260 -267 -301 -372 -406 -413 -418 -427 0
-4 -59 -70 -77 -88 -94 -99 -183 -190 -201 -246 -248 -271 -274 -301 -372 -399 -402 -425 -427 0
-4 -59 -70 -77 -88 -94 -99 -183 -190 -201 -246 -248 -267 -290 -295 -378 -383 -406 -425 -427 0
-4 -59 -70 -77 -88 -94 -99 -183 -190 -201 -239 -255 -271 -283 -301 -372 -390 -402 -418 -434 0
-4 -59 -70 -77 -88 -94 -99 -183 -190 -201 -239 -255 -267 -281 -295 -378 -392 -406 -418 -434 0
-4 -59 -70 -77 -88 -94 -99 -183 -190 -201 -239 -248 -266 -271 -295 -378 -402 -407 -425 -434 0
-4 -59 -70 -77 -88 -94 -99 -183 -190 -201 -236 -260 -274 -283 -301 -372 -390 -399 -413 -437 0
-4 -59 -70 -77 -88 -94 -99 -183 -190 -201 -236 -260 -267 -281 -290 -383 -392 -406 -413 -437 0
-4 -59 -70 -77 -88 -94 -99 -183 -190 -201 -236 -248 -266 -274 -290 -383 -399 -407 -425 -437 0
-4 -59 -70 -77 -88 -94 -99 -183 -190 -201 -236 -239 -266 -281 -283 -390 -392 -407 -434 -437 0
-4 -59 -70 -77 -88 -94 -99 -183 -190 -201 -236 -239 -248 -267 -301 -372 -406 -425 -434 -437 0
-4 -59 -70 -77 -88 -94 -99 -183 -190 -201 -232 -266 -281 -290 -295 -378 -383 -392 -407 -441 0
-4 -59 -70 -77 -88 -94 -99 -183 -190 -201 -232 -266 -271 -274 -283 -390 -399 -402 -407 -441 0
-4 -59 -70 -77 -88 -94 -99 -183 -190 -201 -232 -255 -260 -281 -283 -390 -392 -413 -418 -441 0
-4 -59 -70 -77 -88 -94 -99 -183 -190 -201 -232 -246 -260 -274 -290 -383 -399 -413 -427 -441 0
-4 -59 -70 -77 -88 -94 -99 -183 -190 -201 -232 -246 -255 -271 -295 -378 -402 -418 -427 -441 0
-4 -59 -65 -83 -88 -91 -105 -177 -195 -201 -240 -255 -260 -270 -296 -377 -403 -413 -418 -433 0
-4 -59 -65 -83 -88 -91 -105 -177 -195 -201 -240 -254 -271 -274 -296 -377 -399 -402 -419 -433 0
-4 -59 -65 -83 -88 -91 -105 -177 -195 -201 -240 -254 -270 -290 -295 -378 -383 -403 -419 -433 0
-4 -59 -65 -83 -88 -91 -105 -177 -195 -201 -239 -255 -271 -289 -296 -377 -384 -402 -418 -434 0
-4 -59 -65 -83 -88 -91 -105 -177 -195 -201 -239 -255 -270 -275 -295 -378 -398 -403 -418 -434 0
-4 -59 -65 -83 -88 -91 -105 -177 -195 -201 -239 -254 -261 -271 -295 -378 -402 -412 -419 -434 0
-4 -59 -65 -83 -88 -91 -105 -177 -195 -201 -236 -260 -274 -289 -296 -377 -384 -399 -413 -437 0
-4 -59 -65 -83 -88 -91 -105 -177 -195 -201 -236 -260 -270 -275 -290 -383 -398 -403 -413 -437 0
-4 -59 -65 -83 -88 -91 -105 -177 -195 -201 -236 -254 -261 -274 -290 -383 -399 -412 -419 -437 0
-4 -59 -65 -83 -88 -91 -105 -177 -195 -201 -236 -239 -261 -275 -289 -384 -398 -412 -434 -437 0
-4 -59 -65 -83 -88 -91 -105 -177 -195 -201 -236 -239 -254 -270 -296 -377 -403 -419 -434 -437 0
-4 -59 -65 -83 -88 -91 -105 -177 -195 -201 -235 -261 -275 -290 -295 -378 -383 -398 -412 -438 0
-4 -59 -65 -83 -88 -91 -105 -177 -195 -201 -235 -261 -271 -274 -289 -384 -399 -402 -412 -438 0
-4 -59 -65 -83 -88 -91 -105 -177 -195 -201 -235 -255 -260 -275 -289 -384 -398 -413 -418 -438 0
-4 -59 -65 -83 -88 -91 -105 -177 -195 -201 -235 -240 -260 -274 -290 -383 -399 -413 -433 -438 0
-4 -59 -65 -83 -88 -91 -105 -177 -195 -201 -235 -240 -255 -271 -295 -378 -402 -418 -433 -438 0
-4 -55 -69 -83 -86 -93 -105 -177 -191 -205 -236 -260 -270 -280 -285 -388 -393 -403 -413 -437 0
-4 -55 -69 -83 -86 -93 -105 -177 -191 -205 -236 -244 -261 -280 -284 -389 -393 -412 -429 -437 0
-4 -55 -69 -83 -86 -93 -105 -177 -191 -205 -235 -261 -271 -279 -284 -389 -394 -402 -412 -438 0
-4 -55 -69 -83 -86 -93 -105 -177 -191 -205 -235 -245 -260 -279 -285 -388 -394 -413 -428 -438 0
-4 -51 -75 -83 -85 -97 -105 -177 -185 -209 -240 -254 -274 -280 -285 -388 -393 -399 -419 -433 0
-4 -51 -75 -83 -85 -97 -105 -177 -185 -209 -240 -244 -255 -280 -284 -389 -393 -418 -429 -433 0
-4 -51 -75 -83 -85 -97 -105 -177 -185 -209 -239 -255 -275 -279 -284 -389 -394 -398 -418 -434 0
-4 -51 -75 -83 -85 -97 -105 -177 -185 -209 -239 -245 -254 -279 -285 -388 -394 -419 -428 -434 0
-4 -34 -35 -47 -117 -121 -137 -179 -195 -199 -239 -255 -306 -330 -333 -340 -343 -367 -418 -434 0
-4 -34 -35 -47 -117 -121 -137 -179 -195 -199 -235 -261 -312 -329 -334 -339 -344 -361 -412 -438 0
-4 -34 -35 -47 -117 -121 -137 -179 -195 -199 -235 -238 -255 -306 -334 -339 -367 -418 -435 -438 0
-4 -34 -35 -47 -117 -121 -137 -179 -195 -199 -234 -239 -261 -312 -330 -343 -361 -412 -434 -439 0
-4 -33 -35 -48 -116 -121 -138 -178 -195 -200 -240 -254 -306 -330 -332 -341 -343 -367 -419 -433 0
-4 -33 -35 -48 -116 -121 -138 -178 -195 -200 -236 -260 -312 -328 -334 -339 -345 -361 -413 -437 0
-4 -33 -35 -48 -116 -121 -138 -178 -195 -200 -236 -238 -254 -306 -334 -339 -367 -419 -435 -437 0
-4 -33 -35 -48 -116 -121 -138 -178 -195 -200 -234 -240 -260 -312 -330 -343 -361 -413 -433 -439 0
-4 -32 -39 -42 -115 -127 -132 -184 -189 -201 -246 -254 -261 -302 -336 -337 -371 -412 -419 -427 0
-4 -32 -39 -42 -115 -127 -132 -184 -189 -201 -246 -248 -307 -314 -336 -337 -359 -366 -425 -427 0
-4 -32 -39 -42 -115 -127 -132 -184 -189 -201 -246 -248 -302 -328 -333 -340 -345 -371 -425 -427 0
-4 -32 -39 -42 -115 -127 -132 -184 -189 -201 -240 -254 -307 -322 -336 -337 -351 -366 -419 -433 0
-4 -32 -39 -42 -115 -127 -132 -184 -189 -201 -240 -254 -302 -320 -333 -340 -353 -371 -419 -433 0
-4 -32 -39 -42 -115 -127 -132 -184 -189 -201 -240 -248 -266 -307 -333 -340 -366 -407 -425 -433 0
-4 -32 -39 -42 -115 -127 -132 -184 -189 -201 -235 -261 -314 -322 -336 -337 -351 -359 -412 -438 0
-4 -32 -39 -42 -115 -127 -132 -184 -189 -201 -235 -261 -302 -320 -328 -345 -353 -371 -412 -438 0
-4 -32 -39 -42 -115 -127 -132 -184 -189 -201 -235 -248 -266 -314 -328 -345 -359 -407 -425 -438 0
-4 -32 -39 -42 -115 -127 -132 -184 -189 -201 -235 -240 -266 -320 -322 -351 -353 -407 -433 -438 0
-4 -32 -39 -42 -115 -127 -132 -184 -189 -201 -235 -240 -248 -302 -336 -337 -371 -425 -433 -438 0
-4 -32 -39 -42 -115 -127 -132 -184 -189 -201 -232 -266 -320 -328 -333 -340 -345 -353 -407 -441 0
-4 -32 -39 -42 -115 -127 -132 -184 -189 -201 -232 -266 -307 -314 -322 -351 -359 -366 -407 -441 0
-4 -32 -39 -42 -115 -127 -132 -184 -189 -201 -232 -254 -261 -320 -322 -351 -353 -412 -419 -441 0
-4 -32 -39 -42 -115 -127 -132 -184 -189 -201 -232 -246 -261 -314 -328 -345 -359 -412 -427 -441 0
-4 -32 -39 -42 -115 -127 -132 -184 -189 -201 -232 -246 -254 -307 -333 -340 -366 -419 -427 -441 0
-4 -32 -38 -43 -115 -126 -133 -183 -190 -201 -246 -255 -260 -302 -336 -337 -371 -413 -418 -427 0
-4 -32 -38 -43 -115 -126 -133 -183 -190 -201 -246 -248 -308 -313 -336 -337 -360 -365 -425 -427 0
-4 -32 -38 -43 -115 -126 -133 -183 -190 -201 -246 -248 -302 -329 -332 -341 -344 -371 -425 -427 0
-4 -32 -38 -43 -115 -126 -133 -183 -190 -201 -239 -255 -308 -322 -336 -337 -351 -365 -418 -434 0
-4 -32 -38 -43 -115 -126 -133 -183 -190 -201 -239 -255 -302 -320 -332 -341 -353 -371 -418 -434 0
-4 -32 -38 -43 -115 -126 -133 -183 -190 -201 -239 -248 -266 -308 -332 -341 -365 -407 -425 -434 0
-4 -32 -38 -43 -115 -126 -133 -183 -190 -201 -236 -260 -313 -322 -336 -337 -351 -360 -413 -437 0
-4 -32 -38 -43 -115 -126 -133 -183 -190 -201 -236 -260 -302 -320 -329 -344 -353 -371 -413 -437 0
-4 -32 -38 -43 -115 -126 -133 -183 -190 -201 -236 -248 -266 -313 -329 -344 -360 -407 -425 -437 0
-4 -32 -38 -43 -115 -126 -133 -183 -190 -201 -236 -239 -266 -320 -322 -351 -353 -407 -434 -437 0
-4 -32 -38 -43 -115 -126 -133 -183 -190 -201 -236 -239 -248 -302 -336 -337 -371 -425 -434 -437 0
-4 -32 -38 -43 -115 -126 -133 -183 -190 -201 -232 -266 -320 -329 -332 -341 -344 -353 -407 -441 0
-4 -32 -38 -43 -115 -126 -133 -183 -190 -201 -232 -266 -308 -313 -322 -351 -360 -365 -407 -441 0
-4 -32 -38 -43 -115 -126 -133 -183 -190 -201 -232 -255 -260 -320 -322 -351 -353 -413 -418 -441 0
-4 -32 -38 -43 -115 -126 -133 -183 -190 -201 -232 -246 -260 -313 -329 -344 -360 -413 -427 -441 0
-4 -32 -38 -43 -115 -126 -133 -183 -190 -201 -232 -246 -255 -308 -332 -341 -365 -418 -427 -441 0
-4 -32 -35 -49 -115 -121 -139 -177 -195 -201 -240 -255 -260 -307 -333 -340 -366 -413 -418 -433 0
-4 -32 -35 -49 -115 -121 -139 -177 -195 -201 -240 -254 -308 -313 -333 -340 -360 -365 -419 -433 0
-4 -32 -35 -49 -115 -121 -139 -177 -195 -201 -240 -254 -307 -329 -332 -341 -344 -366 -419 -433 0
-4 -32 -35 -49 -115 -121 -139 -177 -195 -201 -239 -255 -308 -328 -333 -340 -345 -365 -418 -434 0
-4 -32 -35 -49 -115 -121 -139 -177 -195 -201 -239 -255 -307 -314 -332 -341 -359 -366 -418 -434 0
-4 -32 -35 -49 -115 -121 -139 -177 -195 -201 -239 -254 -261 -308 -332 -341 -365 -412 -419 -434 0
-4 -32 -35 -49 -115 -121 -139 -177 -195 -201 -236 -260 -313 -328 -333 -340 -345 -360 -413 -437 0
-4 -32 -35 -49 -115 -121 -139 -177 -195 -201 -236 -260 -307 -314 -329 -344 -359 -366 -413 -437 0
-4 -32 -35 -49 -115 -121 -139 -177 -195 -201 -236 -254 -261 -313 -329 -344 -360 -412 -419 -437 0
-4 -32 -35 -49 -115 -121 -139 -177 -195 -201 -236 -239 -261 -314 -328 -345 -359 -412 -434 -437 0
-4 -32 -35 -49 -115 -121 -139 -177 -195 -201 -236 -239 -254 -307 -333 -340 -366 -419 -434 -437 0
-4 -32 -35 -49 -115 -121 -139 -177 -195 -201 -235 -261 -314 -329 -332 -341 -344 -359 -412 -438 0
-4 -32 -35 -49 -115 -121 -139 -177 -195 -201 -235 -261 -308 -313 -328 -345 -360 -365 -412 -438 0
-4 -32 -35 -49 -115 -121 -139 -177 -195 -201 -235 -255 -260 -314 -328 -345 -359 -413 -418 -438 0
-4 -32 -35 -49 -115 -121 -139 -177 -195 -201 -235 -240 -260 -313 -329 -344 -360 -413 -433 -438 0
-4 -32 -35 -49 -115 -121 -139 -177 -195 -201 -235 -240 -255 -308 -332 -341 -365 -418 -433 -438 0
-4 -30 -37 -49 -111 -125 -139 -177 -191 -205 -236 -260 -318 -323 -333 -340 -350 -355 -413 -437 0
-4 -30 -37 -49 -111 -125 -139 -177 -191 -205 -236 -244 -261 -319 -323 -350 -354 -412 -429 -437 0
-4 -30 -37 -49 -111 -125 -139 -177 -191 -205 -235 -261 -319 -324 -332 -341 -349 -354 -412 -438 0
-4 -30 -37 -49 -111 -125 -139 -177 -191 -205 -235 -245 -260 -318 -324 -349 -355 -413 -428 -438 0
-4 -29 -41 -49 -107 -131 -139 -177 -185 -209 -240 -254 -318 -323 -329 -344 -350 -355 -419 -433 0
-4 -29 -41 -49 -107 -131 -139 -177 -185 -209 -240 -244 -255 -319 -323 -350 -354 -418 -429 -433 0
-4 -29 -41 -49 -107 -131 -139 -177 -185 -209 -239 -255 -319 -324 -328 -345 -349 -354 -418 -434 0
-4 -29 -41 -49 -107 -131 -139 -177 -185 -209 -239 -245 -254 -318 -324 -349 -355 -419 -428 -434 0
-4 -13 -17 -20 -152 -161 -166 -185 -190 -199 -279 -285 -302 -329 -334 -339 -344 -371 -388 -394 0
-4 -13 -17 -20 -152 -161 -166 -185 -190 -199 -274 -285 -301 -306 -334 -339 -367 -372 -388 -399 0
-4 -13 -17 -20 -152 -161 -166 -185 -190 -199 -269 -297 -302 -318 -329 -344 -355 -371 -376 -404 0
-4 -13 -17 -20 -152 -161 -166 -185 -190 -199 -269 -274 -301 -318 -324 -349 -355 -372 -399 -404 0
-4 -13 -16 -21 -152 -160 -167 -184 -191 -199 -279 -285 -302 -330 -333 -340 -343 -371 -388 -394 0
-4 -13 -16 -21 -152 -160 -167 -184 -191 -199 -273 -291 -302 -318 -333 -340 -355 -371 -382 -400 0
-4 -13 -16 -21 -152 -160 -167 -184 -191 -199 -270 -285 -301 -312 -330 -343 -361 -372 -388 -403 0
-4 -13 -16 -21 -152 -160 -167 -184 -191 -199 -270 -273 -301 -318 -324 -349 -355 -372 -400 -403 0
-4 -13 -14 -26 -152 -156 -172 -179 -195 -199 -274 -291 -296 -306 -334 -339 -367 -377 -382 -399 0
-4 -13 -14 -26 -152 -156 -172 -179 -195 -199 -274 -290 -307 -312 -334 -339 -361 -366 -383 -399 0
-4 -13 -14 -26 -152 -156 -172 -179 -195 -199 -274 -290 -306 -330 -333 -340 -343 -367 -383 -399 0
-4 -13 -14 -26 -152 -156 -172 -179 -195 -199 -273 -291 -307 -329 -334 -339 -344 -366 -382 -400 0
-4 -13 -14 -26 -152 -156 -172 -179 -195 -199 -273 -291 -306 -313 -333 -340 -360 -367 -382 -400 0
-4 -13 -14 -26 -152 -156 -172 -179 -195 -199 -273 -290 -297 -307 -333 -340 -366 -376 -383 -400 0
-4 -13 -14 -26 -152 -156 -172 -179 -195 -199 -270 -296 -312 -329 -334 -339 -344 -361 -377 -403 0
-4 -13 -14 -26 -152 -156 -172 -179 -195 -199 -270 -296 -306 -313 -330 -343 -360 -367 -377 -403 0
-4 -13 -14 -26 -152 -156 -172 -179 -195 -199 -270 -290 -297 -312 -330 -343 -361 -376 -383 -403 0
-4 -13 -14 -26 -152 -156 -172 -179 -195 -199 -270 -273 -297 -313 -329 -344 -360 -376 -400 -403 0
-4 -13 -14 -26 -152 -156 -172 -179 -195 -199 -270 -273 -290 -306 -334 -339 -367 -383 -400 -403 0
-4 -13 -14 -26 -152 -156 -172 -179 -195 -199 -269 -297 -313 -330 -333 -340 -343 -360 -376 -404 0
-4 -13 -14 -26 -152 -156 -172 -179 -195 -199 -269 -297 -307 -312 -329 -344 -361 -366 -376 -404 0
-4 -13 -14 -26 -152 -156 -172 -179 -195 -199 -269 -291 -296 -313 -329 -344 -360 -377 -382 -404 0
-4 -13 -14 -26 -152 -156 -172 -179 -195 -199 -269 -274 -296 -312 -330 -343 -361 -377 -399 -404 0
-4 -13 -14 -26 -152 -156 -172 -179 -195 -199 -269 -274 -291 -307 -333 -340 -366 -382 -399 -404 0
-4 -12 -18 -20 -151 -162 -166 -185 -189 -200 -280 -284 -302 -328 -334 -339 -345 -371 -389 -393 0
-4 -12 -18 -20 -151 -162 -166 -185 -189 -200 -275 -284 -301 -306 -334 -339 -367 -372 -389 -398 0
-4 -12 -18 -20 -151 -162 -166 -185 -189 -200 -269 -297 -302 -319 -328 -345 -354 -371 -376 -404 0
-4 -12 -18 -20 -151 -162 -166 -185 -189 -200 -269 -275 -301 -319 -323 -350 -354 -372 -398 -404 0
-4 -12 -16 -22 -151 -160 -168 -183 -191 -200 -280 -284 -302 -330 -332 -341 -343 -371 -389 -393 0
-4 -12 -16 -22 -151 -160 -168 -183 -191 -200 -273 -291 -302 -319 -332 -341 -354 -371 -382 -400 0
-4 -12 -16 -22 -151 -160 -168 -183 -191 -200 -271 -284 -301 -312 -330 -343 -361 -372 -389 -402 0
-4 -12 -16 -22 -151 -160 -168 -183 -191 -200 -271 -273 -301 -319 -323 -350 -354 -372 -400 -402 0
-4 -12 -14 -27 -151 -156 -173 -178 -195 -200 -275 -291 -295 -306 -334 -339 -367 -378 -382 -398 0
-4 -12 -14 -27 -151 -156 -173 -178 -195 -200 -275 -289 -308 -312 -334 -339 -361 -365 -384 -398 0
-4 -12 -14 -27 -151 -156 -173 -178 -195 -200 -275 -289 -306 -330 -332 -341 -343 -367 -384 -398 0
-4 -12 -14 -27 -151 -156 -173 -178 -195 -200 -273 -291 -308 -328 -334 -339 -345 -365 -382 -400 0
-4 -12 -14 -27 -151 -156 -173 -178 -195 -200 -273 -291 -306 -314 -332 -341 -359 -367 -382 -400 0
-4 -12 -14 -27 -151 -156 -173 -178 -195 -200 -273 -289 -297 -308 -332 -341 -365 -376 -384 -400 0
-4 -12 -14 -27 -151 -156 -173 -178 -195 -200 -271 -295 -312 -328 -334 -339 -345 -361 -378 -402 0
-4 -12 -14 -27 -151 -156 -173 -178 -195 -200 -271 -295 -306 -314 -330 -343 -359 -367 -378 -402 0
-4 -12 -14 -27 -151 -156 -173 -178 -195 -200 -271 -289 -297 -312 -330 -343 -361 -376 -384 -402 0
-4 -12 -14 -27 -151 -156 -173 -178 -195 -200 -271 -273 -297 -314 -328 -345 -359 -376 -400 -402 0
-4 -12 -14 -27 -151 -156 -173 -178 -195 -200 -271 -273 -289 -306 -334 -339 -367 -384 -400 -402 0
-4 -12 -14 -27 -151 -156 -173 -178 -195 -200 -269 -297 -314 -330 -332 -341 -343 -359 -376 -404 0
-4 -12 -14 -27 -151 -156 -173 -178 -195 -200 -269 -297 -308 -312 -328 -345 -361 -365 -376 -404 0
-4 -12 -14 -27 -151 -156 -173 -178 -195 -200 -269 -291 -295 -314 -328 -345 -359 -378 -382 -404 0
-4 -12 -14 -27 -151 -156 -173 -178 -195 -200 -269 -275 -295 -312 -330 -343 -361 -378 -398 -404 0
-4 -12 -14 -27 -151 -156 -173 -178 -195 -200 -269 -275 -291 -308 -332 -341 -365 -382 -398 -404 0
-4 -11 -18 -21 -150 -162 -167 -184 -189 -201 -281 -289 -296 -302 -336 -337 -371 -377 -384 -392 0
-4 -11 -18 -21 -150 -162 -167 -184 -189 -201 -281 -283 -307 -314 -336 -337 -359 -366 -390 -392 0
-4 -11 -18 -21 -150 -162 -167 -184 -189 -201 -281 -283 -302 -328 -333 -340 -345 -371 -390 -392 0
-4 -11 -18 -21 -150 -162 -167 -184 -189 -201 -275 -289 -307 -322 -336 -337 -351 -366 -384 -398 0
-4 -11 -18 -21 -150 -162 -167 -184 -189 -201 -275 -289 -302 -320 -333 -340 -353 -371 -384 -398 0
-4 -11 -18 -21 -150 -162 -167 -184 -189 -201 -275 -283 -301 -307 -333 -340 -366 -372 -390 -398 0
-4 -11 -18 -21 -150 -162 -167 -184 -189 -201 -270 -296 -314 -322 -336 -337 -351 -359 -377 -403 0
-4 -11 -18 -21 -150 -162 -167 -184 -189 -201 -270 -296 -302 -320 -328 -345 -353 -371 -377 -403 0
-4 -11 -18 -21 -150 -162 -167 -184 -189 -201 -270 -283 -301 -314 -328 -345 -359 -372 -390 -403 0
-4 -11 -18 -21 -150 -162 -167 -184 -189 -201 -270 -275 -301 -320 -322 -351 -353 -372 -398 -403 0
-4 -11 -18 -21 -150 -162 -167 -184 -189 -201 -270 -275 -283 -302 -336 -337 -371 -390 -398 -403 0
-4 -11 -18 -21 -150 -162 -167 -184 -189 -201 -267 -301 -320 -328 -333 -340 -345 -353 -372 -406 0
-4 -11 -18 -21 -150 -162 -167 -184 -189 -201 -267 -301 -307 -314 -322 -351 -359 -366 -372 -406 0
-4 -11 -18 -21 -150 -162 -167 -184 -189 -201 -267 -289 -296 -320 -322 -351 -353 -377 -384 -406 0
-4 -11 -18 -21 -150 -162 -167 -184 -189 -201 -267 -281 -296 -314 -328 -345 -359 -377 -392 -406 0
-4 -11 -18 -21 -150 -162 -167 -184 -189 -201 -267 -281 -289 -307 -333 -340 -366 -384 -392 -406 0
-4 -11 -17 -22 -150 -161 -168 -183 -190 -201 -281 -290 -295 -302 -336 -337 -371 -378 -383 -392 0
-4 -11 -17 -22 -150 -161 -168 -183 -190 -201 -281 -283 -308 -313 -336 -337 -360 -365 -390 -392 0
-4 -11 -17 -22 -150 -161 -168 -183 -190 -201 -281 -283 -302 -329 -332 -341 -344 -371 -390 -392 0
-4 -11 -17 -22 -150 -161 -168 -183 -190 -201 -274 -290 -308 -322 -336 -337 -351 -365 -383 -399 0
-4 -11 -17 -22 -150 -161 -168 -183 -190 -201 -274 -290 -302 -320 -332 -341 -353 -371 -383 -399 0
-4 -11 -17 -22 -150 -161 -168 -183 -190 -201 -274 -283 -301 -308 -332 -341 -365 -372 -390 -399 0
-4 -11 -17 -22 -150 -161 -168 -183 -190 -201 -271 -295 -313 -322 -336 -337 -351 -360 -378 -402 0
-4 -11 -17 -22 -150 -161 -168 -183 -190 -201 -271 -295 -302 -320 -329 -344 -353 -371 -378 -402 0
-4 -11 -17 -22 -150 -161 -168 -183 -190 -201 -271 -283 -301 -313 -329 -344 -360 -372 -390 -402 0
-4 -11 -17 -22 -150 -161 -168 -183 -190 -201 -271 -274 -301 -320 -322 -351 -353 -372 -399 -402 0
-4 -11 -17 -22 -150 -161 -168 -183 -190 -201 -271 -274 -283 -302 -336 -337 -371 -390 -399 -402 0
-4 -11 -17 -22 -150 -161 -168 -183 -190 -201 -267 -301 -320 -329 -332 -341 -344 -353 -372 -406 0
-4 -11 -17 -22 -150 -161 -168 -183 -190 -201 -267 -301 -308 -313 -322 -351 -360 -365 -372 -406 0
-4 -11 -17 -22 -150 -161 -168 -183 -190 -201 -267 -290 -295 -320 -322 -351 -353 -378 -383 -406 0
-4 -11 -17 -22 -150 -161 -168 -183 -190 -201 -267 -281 -295 -313 -329 -344 -360 -378 -392 -406 0
-4 -11 -17 -22 -150 -161 -168 -183 -190 -201 -267 -281 -290 -308 -332 -341 -365 -383 -392 -406 0
-4 -11 -14 -28 -150 -156 -174 -177 -195 -201 -275 -290 -295 -307 -333 -340 -366 -378 -383 -398 0
-4 -11 -14 -28 -150 -156 -174 -177 -195 -201 -275 -289 -308 -313 -333 -340 -360 -365 -384 -398 0
-4 -11 -14 -28 -150 -156 -174 -177 -195 -201 -275 -289 -307 -329 -332 -341 -344 -366 -384 -398 0
-4 -11 -14 -28 -150 -156 -174 -177 -195 -201 -274 -290 -308 -328 -333 -340 -345 -365 -383 -399 0
-4 -11 -14 -28 -150 -156 -174 -177 -195 -201 -274 -290 -307 -314 -332 -341 -359 -366 -383 -399 0
-4 -11 -14 -28 -150 -156 -174 -177 -195 -201 -274 -289 -296 -308 -332 -341 -365 -377 -384 -399 0
-4 -11 -14 -28 -150 -156 -174 -177 -195 -201 -271 -295 -313 -328 -333 -340 -345 -360 -378 -402 0
-4 -11 -14 -28 -150 -156 -174 -177 -195 -201 -271 -295 -307 -314 -329 -344 -359 -366 -378 -402 0
-4 -11 -14 -28 -150 -156 -174 -177 -195 -201 -271 -289 -296 -313 -329 -344 -360 -377 -384 -402 0
-4 -11 -14 -28 -150 -156 -174 -177 -195 -201 -271 -274 -296 -314 -328 -345 -359 -377 -399 -402 0
-4 -11 -14 -28 -150 -156 -174 -177 -195 -201 -271 -274 -289 -307 -333 -340 -366 -384 -399 -402 0
-4 -11 -14 -28 -150 -156 -174 -177 -195 -201 -270 -296 -314 -329 -332 -341 -344 -359 -377 -403 0
-4 -11 -14 -28 -150 -156 -174 -177 -195 -201 -270 -296 -308 -313 -328 -345 -360 -365 -377 -403 0
-4 -11 -14 -28 -150 -156 -174 -177 -195 -201 -270 -290 -295 -314 -328 -345 -359 -378 -383 -403 0
-4 -11 -14 -28 -150 -156 -174 -177 -195 -201 -270 -275 -295 -313 -329 -344 -360 -378 -398 -403 0
-4 -11 -14 -28 -150 -156 -174 -177 -195 -201 -270 -275 -290 -308 -332 -341 -365 -383 -398 -403 0
-4 -9 -18 -26 -146 -162 -172 -179 -189 -205 -280 -284 -306 -320 -333 -340 -353 -367 -389 -393 0
-4 -9 -18 -26 -146 -162 -172 -179 -189 -205 -270 -283 -297 -319 -323 -350 -354 -376 -390 -403 0
-4 -9 -18 -26 -146 -162 -172 -179 -189 -205 -270 -280 -283 -306 -334 -339 -367 -390 -393 -403 0
-4 -9 -18 -26 -146 -162 -172 -179 -189 -205 -269 -297 -320 -323 -333 -340 -350 -353 -376 -404 0
-4 -9 -17 -27 -146 -161 -173 -178 -190 -205 -279 -285 -306 -320 -332 -341 -353 -367 -388 -394 0
-4 -9 -17 -27 -146 -161 -173 -178 -190 -205 -271 -283 -297 -318 -324 -349 -355 -376 -390 -402 0
-4 -9 -17 -27 -146 -161 -173 -178 -190 -205 -271 -279 -283 -306 -334 -339 -367 -390 -394 -402 0
-4 -9 -17 -27 -146 -161 -173 -178 -190 -205 -269 -297 -320 -324 -332 -341 -349 -353 -376 -404 0
-4 -9 -16 -28 -146 -160 -174 -177 -191 -205 -280 -285 -295 -307 -333 -340 -366 -378 -388 -393 0
-4 -9 -16 -28 -146 -160 -174 -177 -191 -205 -280 -284 -308 -318 -333 -340 -355 -365 -389 -393 0
-4 -9 -16 -28 -146 -160 -174 -177 -191 -205 -280 -284 -307 -324 -332 -341 -349 -366 -389 -393 0
-4 -9 -16 -28 -146 -160 -174 -177 -191 -205 -279 -285 -308 -323 -333 -340 -350 -365 -388 -394 0
-4 -9 -16 -28 -146 -160 -174 -177 -191 -205 -279 -285 -307 -319 -332 -341 -354 -366 -388 -394 0
-4 -9 -16 -28 -146 -160 -174 -177 -191 -205 -279 -284 -296 -308 -332 -341 -365 -377 -389 -394 0
-4 -9 -16 -28 -146 -160 -174 -177 -191 -205 -271 -295 -318 -323 -333 -340 -350 -355 -378 -402 0
-4 -9 -16 -28 -146 -160 -174 -177 -191 -205 -271 -295 -307 -319 -324 -349 -354 -366 -378 -402 0
-4 -9 -16 -28 -146 -160 -174 -177 -191 -205 -271 -284 -296 -318 -324 -349 -355 -377 -389 -402 0
-4 -9 -16 -28 -146 -160 -174 -177 -191 -205 -271 -279 -296 -319 -323 -350 -354 -377 -394 -402 0
-4 -9 -16 -28 -146 -160 -174 -177 -191 -205 -271 -279 -284 -307 -333 -340 -366 -389 -394 -402 0
-4 -9 -16 -28 -146 -160 -174 -177 -191 -205 -270 -296 -319 -324 -332 -341 -349 -354 -377 -403 0
-4 -9 -16 -28 -146 -160 -174 -177 -191 -205 -270 -296 -308 -318 -323 -350 -355 -365 -377 -403 0
-4 -9 -16 -28 -146 -160 -174 -177 -191 -205 -270 -285 -295 -319 -323 -350 -354 -378 -388 -403 0
-4 -9 -16 -28 -146 -160 -174 -177 -191 -205 -270 -280 -295 -318 -324 -349 -355 -378 -393 -403 0
-4 -9 -16 -28 -146 -160 -174 -177 -191 -205 -270 -280 -285 -308 -332 -341 -365 -388 -393 -403 0
-4 -8 -22 -26 -142 -168 -172 -179 -183 -209 -280 -284 -312 -320 -329 -344 -353 -361 -389 -393 0
-4 -8 -22 -26 -142 -168 -172 -179 -183 -209 -274 -283 -291 -319 -323 -350 -354 -382 -390 -399 0
-4 -8 -22 -26 -142 -168 -172 -179 -183 -209 -274 -280 -283 -312 -330 -343 -361 -390 -393 -399 0
-4 -8 -22 -26 -142 -168 -172 -179 -183 -209 -273 -291 -320 -323 -329 -344 -350 -353 -382 -400 0
-4 -8 -21 -27 -142 -167 -173 -178 -184 -209 -279 -285 -312 -320 -328 -345 -353 -361 -388 -394 0
-4 -8 -21 -27 -142 -167 -173 -178 -184 -209 -275 -283 -291 -318 -324 -349 -355 -382 -390 -398 0
-4 -8 -21 -27 -142 -167 -173 -178 -184 -209 -275 -279 -283 -312 -330 -343 -361 -390 -394 -398 0
-4 -8 -21 -27 -142 -167 -173 -178 -184 -209 -273 -291 -320 -324 -328 -345 -349 -353 -382 -400 0
-4 -8 -20 -28 -142 -166 -174 -177 -185 -209 -280 -285 -289 -313 -329 -344 -360 -384 -388 -393 0
-4 -8 -20 -28 -142 -166 -174 -177 -185 -209 -280 -284 -314 -318 -329 -344 -355 -359 -389 -393 0
-4 -8 -20 -28 -142 -166 -174 -177 -185 -209 -280 -284 -313 -324 -328 -345 -349 -360 -389 -393 0
-4 -8 -20 -28 -142 -166 -174 -177 -185 -209 -279 -285 -314 -323 -329 -344 -350 -359 -388 -394 0
-4 -8 -20 -28 -142 -166 -174 -177 -185 -209 -279 -285 -313 -319 -328 -345 -354 -360 -388 -394 0
-4 -8 -20 -28 -142 -166 -174 -177 -185 -209 -279 -284 -290 -314 -328 -345 -359 -383 -389 -394 0
-4 -8 -20 -28 -142 -166 -174 -177 -185 -209 -275 -289 -318 -323 -329 -344 -350 -355 -384 -398 0
-4 -8 -20 -28 -142 -166 -174 -177 -185 -209 -275 -289 -313 -319 -324 -349 -354 -360 -384 -398 0
-4 -8 -20 -28 -142 -166 -174 -177 -185 -209 -275 -284 -290 -318 -324 -349 -355 -383 -389 -398 0
-4 -8 -20 -28 -142 -166 -174 -177 -185 -209 -275 -279 -290 -319 -323 -350 -354 -383 -394 -398 0
-4 -8 -20 -28 -142 -166 -174 -177 -185 -209 -275 -279 -284 -313 -329 -344 -360 -389 -394 -398 0
-4 -8 -20 -28 -142 -166 -174 -177 -185 -209 -274 -290 -319 -324 -328 -345 -349 -354 -383 -399 0
-4 -8 -20 -28 -142 -166 -174 -177 -185 -209 -274 -290 -314 -318 -323 -350 -355 -359 -383 -399 0
-4 -8 -20 -28 -142 -166 -174 -177 -185 -209 -274 -285 -289 -319 -323 -350 -354 -384 -388 -399 0
-4 -8 -20 -28 -142 -166 -174 -177 -185 -209 -274 -280 -289 -318 -324 -349 -355 -384 -393 -399 0
-4 -8 -20 -28 -142 -166 -174 -177 -185 -209 -274 -280 -285 -314 -328 -345 -359 -388 -393 -399 0
-3 -58 -67 -75 -90 -94 -100 -185 -193 -202 -244 -253 -269 -277 -301 -372 -396 -404 -420 -429 0
-3 -58 -67 -75 -90 -94 -100 -185 -193 -202 -242 -255 -268 -279 -300 -373 -394 -405 -418 -431 0
-3 -58 -67 -75 -90 -94 -100 -185 -193 -202 -234 -242 -253 -268 -301 -372 -405 -420 -431 -439 0
-3 -58 -67 -75 -90 -94 -100 -185 -193 -202 -233 -244 -255 -269 -300 -373 -404 -418 -429 -440 0
-3 -57 -68 -75 -89 -95 -100 -185 -192 -203 -245 -252 -269 -278 -301 -372 -395 -404 -421 -428 0
-3 -57 -68 -75 -89 -95 -100 -185 -192 -203 -243 -254 -268 -280 -300 -373 -393 -405 -419 -430 0
-3 -57 -68 -75 -89 -95 -100 -185 -192 -203 -234 -243 -252 -268 -301 -372 -405 -421 -430 -439 0
-3 -57 -68 -75 -89 -95 -100 -185 -192 -203 -233 -245 -254 -269 -300 -373 -404 -419 -428 -440 0
-3 -56 -65 -80 -88 -92 -105 -180 -195 -204 -243 -254 -271 -277 -299 -374 -396 -402 -419 -430 0
-3 -56 -65 -80 -88 -92 -105 -180 -195 -204 -242 -255 -270 -278 -298 -375 -395 -403 -418 -431 0
-3 -56 -65 -80 -88 -92 -105 -180 -195 -204 -236 -242 -254 -270 -299 -374 -403 -419 -431 -437 0
-3 -56 -65 -80 -88 -92 -105 -180 -195 -204 -235 -243 -255 -271 -298 -375 -402 -418 -430 -438 0
-3 -55 -66 -80 -87 -93 -105 -180 -194 -205 -245 -252 -271 -279 -299 -374 -394 -402 -421 -428 0
-3 -55 -66 -80 -87 -93 -105 -180 -194 -205 -244 -253 -270 -280 -298 -375 -393 -403 -420 -429 0
-3 -55 -66 -80 -87 -93 -105 -180 -194 -205 -236 -244 -252 -270 -299 -374 -403 -421 -429 -437 0
-3 -55 -66 -80 -87 -93 -105 -180 -194 -205 -235 -245 -253 -271 -298 -375 -402 -420 -428 -438 0
-3 -50 -77 -78 -85 -102 -103 -182 -183 -210 -246 -252 -255 -276 -291 -382 -397 -418 -421 -427 0
-3 -50 -77 -78 -85 -102 -103 -182 -183 -210 -246 -251 -277 -280 -291 -382 -393 -396 -422 -427 0
-3 -50 -77 -78 -85 -102 -103 -182 -183 -210 -246 -251 -276 -287 -290 -383 -386 -397 -422 -427 0
-3 -50 -77 -78 -85 -102 -103 -182 -183 -210 -245 -252 -277 -286 -291 -382 -387 -396 -421 -428 0
-3 -50 -77 -78 -85 -102 -103 -182 -183 -210 -245 -252 -276 -281 -290 -383 -392 -397 -421 -428 0
-3 -50 -77 -78 -85 -102 -103 -182 -183 -210 -245 -251 -256 -277 -290 -383 -396 -417 -422 -428 0
-3 -50 -77 -78 -85 -102 -103 -182 -183 -210 -242 -255 -280 -286 -291 -382 -387 -393 -418 -431 0
-3 -50 -77 -78 -85 -102 -103 -182 -183 -210 -242 -255 -276 -281 -287 -386 -392 -397 -418 -431 0
-3 -50 -77 -78 -85 -102 -103 -182 -183 -210 -242 -251 -256 -280 -287 -386 -393 -417 -422 -431 0
-3 -50 -77 -78 -85 -102 -103 -182 -183 -210 -242 -245 -256 -281 -286 -387 -392 -417 -428 -431 0
-3 -50 -77 -78 -85 -102 -103 -182 -183 -210 -242 -245 -251 -276 -291 -382 -397 -422 -428 -431 0
-3 -50 -77 -78 -85 -102 -103 -182 -183 -210 -241 -256 -281 -287 -290 -383 -386 -392 -417 -432 0
-3 -50 -77 -78 -85 -102 -103 -182 -183 -210 -241 -256 -277 -280 -286 -387 -393 -396 -417 -432 0
-3 -50 -77 -78 -85 -102 -103 -182 -183 -210 -241 -252 -255 -281 -286 -387 -392 -418 -421 -432 0
-3 -50 -77 -78 -85 -102 -103 -182 -183 -210 -241 -246 -255 -280 -287 -386 -393 -418 -427 -432 0
-3 -50 -77 -78 -85 -102 -103 -182 -183 -210 -241 -246 -252 -277 -290 -383 -396 -421 -427 -432 0
-3 -50 -76 -79 -85 -101 -104 -181 -184 -210 -246 -253 -254 -276 -291 -382 -397 -419 -420 -427 0
-3 -50 -76 -79 -85 -101 -104 -181 -184 -210 -246 -251 -278 -279 -291 -382 -394 -395 -422 -427 0
-3 -50 -76 -79 -85 -101 -104 -181 -184 -210 -246 -251 -276 -288 -289 -384 -385 -397 -422 -427 0
-3 -50 -76 -79 -85 -101 -104 -181 -184 -210 -244 -253 -278 -286 -291 -382 -387 -395 -420 -429 0
-3 -50 -76 -79 -85 -101 -104 -181 -184 -210 -244 -253 -276 -281 -289 -384 -392 -397 -420 -429 0
-3 -50 -76 -79 -85 -101 -104 -181 -184 -210 -244 -251 -256 -278 -289 -384 -395 -417 -422 -429 0
-3 -50 -76 -79 -85 -101 -104 -181 -184 -210 -243 -254 -279 -286 -291 -382 -387 -394 -419 -430 0
-3 -50 -76 -79 -85 -101 -104 -181 -184 -210 -243 -254 -276 -281 -288 -385 -392 -397 -419 -430 0
-3 -50 -76 -79 -85 -101 -104 -181 -184 -210 -243 -251 -256 -279 -288 -385 -394 -417 -422 -430 0
-3 -50 -76 -79 -85 -101 -104 -181 -184 -210 -243 -244 -256 -281 -286 -387 -392 -417 -429 -430 0
-3 -50 -76 -79 -85 -101 -104 -181 -184 -210 -243 -244 -251 -276 -291 -382 -397 -422 -429 -430 0
-3 -50 -76 -79 -85 -101 -104 -181 -184 -210 -241 -256 -281 -288 -289 -384 -385 -392 -417 -432 0
-3 -50 -76 -79 -85 -101 -104 -181 -184 -210 -241 -256 -278 -279 -286 -387 -394 -395 -417 -432 0
-3 -50 -76 -79 -85 -101 -104 -181 -184 -210 -241 -253 -254 -281 -286 -387 -392 -419 -420 -432 0
-3 -50 -76 -79 -85 -101 -104 -181 -184 -210 -241 -246 -254 -279 -288 -385 -394 -419 -427 -432 0
-3 -50 -76 -79 -85 -101 -104 -181 -184 -210 -241 -246 -253 -278 -289 -384 -395 -420 -427 -432 0
-3 -50 -75 -80 -85 -100 -105 -180 -185 -210 -245 -253 -254 -277 -290 -383 -396 -419 -420 -428 0
-3 -50 -75 -80 -85 -100 -105 -180 -185 -210 -245 -252 -278 -279 -290 -383 -394 -395 -421 -428 0
-3 -50 -75 -80 -85 -100 -105 -180 -185 -210 -245 -252 -277 -288 -289 -384 -385 -396 -421 -428 0
-3 -50 -75 -80 -85 -100 -105 -180 -185 -210 -244 -253 -278 -287 -290 -383 -386 -395 -420 -429 0
-3 -50 -75 -80 -85 -100 -105 -180 -185 -210 -244 -253 -277 -280 -289 -384 -393 -396 -420 -429 0
-3 -50 -75 -80 -85 -100 -105 -180 -185 -210 -244 -252 -255 -278 -289 -384 -395 -418 -421 -429 0
-3 -50 -75 -80 -85 -100 -105 -180 -185 -210 -243 -254 -279 -287 -290 -383 -386 -394 -419 -430 0
-3 -50 -75 -80 -85 -100 -105 -180 -185 -210 -243 -254 -277 -280 -288 -385 -393 -396 -419 -430 0
-3 -50 -75 -80 -85 -100 -105 -180 -185 -210 -243 -252 -255 -279 -288 -385 -394 -418 -421 -430 0
-3 -50 -75 -80 -85 -100 -105 -180 -185 -210 -243 -244 -255 -280 -287 -386 -393 -418 -429 -430 0
-3 -50 -75 -80 -85 -100 -105 -180 -185 -210 -243 -244 -252 -277 -290 -383 -396 -421 -429 -430 0
-3 -50 -75 -80 -85 -100 -105 -180 -185 -210 -242 -255 -280 -288 -289 -384 -385 -393 -418 -431 0
-3 -50 -75 -80 -85 -100 -105 -180 -185 -210 -242 -255 -278 -279 -287 -386 -394 -395 -418 -431 0
-3 -50 -75 -80 -85 -100 -105 -180 -185 -210 -242 -253 -254 -280 -287 -386 -393 -419 -420 -431 0
-3 -50 -75 -80 -85 -100 -105 -180 -185 -210 -242 -245 -254 -279 -288 -385 -394 -419 -428 -431 0
-3 -50 -75 -80 -85 -100 -105 -180 -185 -210 -242 -245 -253 -278 -289 -384 -395 -420 -428 -431 0
-3 -34 -38 -44 -114 -123 -131 -185 -193 -202 -244 -253 -302 -326 -334 -339 -347 -371 -420 -429 0
-3 -34 -38 -44 -114 -123 -131 -185 -193 -202 -242 -255 -303 -324 -335 -338 -349 -370 -418 -431 0
-3 -34 -38 -44 -114 -123 -131 -185 -193 -202 -234 -242 -253 -302 -335 -338 -371 -420 -431 -439 0
-3 -34 -38 -44 -114 -123 -131 -185 -193 -202 -233 -244 -255 -303 -334 -339 -370 -418 -429 -440 0
-3 -33 -39 -44 -113 -124 -131 -185 -192 -203 -245 -252 -302 -325 -334 -339 -348 -371 -421 -428 0
-3 -33 -39 -44 -113 -124 -131 -185 -192 -203 -243 -254 -303 -323 -335 -338 -350 -370 -419 -430 0
-3 -33 -39 -44 -113 -124 -131 -185 -192 -203 -234 -243 -252 -302 -335 -338 -371 -421 -430 -439 0
-3 -33 -39 -44 -113 -124 -131 -185 -192 -203 -233 -245 -254 -303 -334 -339 -370 -419 -428 -440 0
-3 -32 -36 -49 -112 -121 -136 -180 -195 -204 -243 -254 -304 -326 -332 -341 -347 -369 -419 -430 0
-3 -32 -36 -49 -112 -121 -136 -180 -195 -204 -242 -255 -305 -325 -333 -340 -348 -368 -418 -431 0
-3 -32 -36 -49 -112 -121 -136 -180 -195 -204 -236 -242 -254 -304 -333 -340 -369 -419 -431 -437 0
-3 -32 -36 -49 -112 -121 -136 -180 -195 -204 -235 -243 -255 -305 -332 -341 -368 -418 -430 -438 0
-3 -31 -37 -49 -111 -122 -136 -180 -194 -205 -245 -252 -304 -324 -332 -341 -349 -369 -421 -428 0
-3 -31 -37 -49 -111 -122 -136 -180 -194 -205 -244 -253 -305 -323 -333 -340 -350 -368 -420 -429 0
-3 -31 -37 -49 -111 -122 -136 -180 -194 -205 -236 -244 -252 -304 -333 -340 -369 -421 -429 -437 0
-3 -31 -37 -49 -111 -122 -136 -180 -194 -205 -235 -245 -253 -305 -332 -341 -368 -420 -428 -438 0
-3 -29 -46 -47 -106 -133 -134 -182 -183 -210 -246 -252 -255 -312 -327 -346 -361 -418 -421 -427 0
-3 -29 -46 -47 -106 -133 -134 -182 -183 -210 -246 -251 -313 -316 -327 -346 -357 -360 -422 -427 0
-3 -29 -46 -47 -106 -133 -134 -182 -183 -210 -246 -251 -312 -323 -326 -347 -350 -361 -422 -427 0
-3 -29 -46 -47 -106 -133 -134 -182 -183 -210 -245 -252 -313 -322 -327 -346 -351 -360 -421 -428 0
-3 -29 -46 -47 -106 -133 -134 -182 -183 -210 -245 -252 -312 -317 -326 -347 -356 -361 -421 -428 0
-3 -29 -46 -47 -106 -133 -134 -182 -183 -210 -245 -251 -256 -313 -326 -347 -360 -417 -422 -428 0
-3 -29 -46 -47 -106 -133 -134 -182 -183 -210 -242 -255 -316 -322 -327 -346 -351 -357 -418 -431 0
-3 -29 -46 -47 -106 -133 -134 -182 -183 -210 -242 -255 -312 -317 -323 -350 -356 -361 -418 -431 0
-3 -29 -46 -47 -106 -133 -134 -182 -183 -210 -242 -251 -256 -316 -323 -350 -357 -417 -422 -431 0
-3 -29 -46 -47 -106 -133 -134 -182 -183 -210 -242 -245 -256 -317 -322 -351 -356 -417 -428 -431 0
-3 -29 -46 -47 -106 -133 -134 -182 -183 -210 -242 -245 -251 -312 -327 -346 -361 -422 -428 -431 0
-3 -29 -46 -47 -106 -133 -134 -182 -183 -210 -241 -256 -317 -323 -326 -347 -350 -356 -417 -432 0
-3 -29 -46 -47 -106 -133 -134 -182 -183 -210 -241 -256 -313 -316 -322 -351 -357 -360 -417 -432 0
-3 -29 -46 -47 -106 -133 -134 -182 -183 -210 -241 -252 -255 -317 -322 -351 -356 -418 -421 -432 0
-3 -29 -46 -47 -106 -133 -134 -182 -183 -210 -241 -246 -255 -316 -323 -350 -357 -418 -427 -432 0
-3 -29 -46 -47 -106 -133 -134 -182 -183 -210 -241 -246 -252 -313 -326 -347 -360 -421 -427 -432 0
-3 -29 -45 -48 -106 -132 -135 -181 -184 -210 -246 -253 -254 -312 -327 -346 -361 -419 -420 -427 0
-3 -29 -45 -48 -106 -132 -135 -181 -184 -210 -246 -251 -314 -315 -327 -346 -358 -359 -422 -427 0
-3 -29 -45 -48 -106 -132 -135 -181 -184 -210 -246 -251 -312 -324 -325 -348 -349 -361 -422 -427 0
-3 -29 -45 -48 -106 -132 -135 -181 -184 -210 -244 -253 -314 -322 -327 -346 -351 -359 -420 -429 0
-3 -29 -45 -48 -106 -132 -135 -181 -184 -210 -244 -253 -312 -317 -325 -348 -356 -361 -420 -429 0
-3 -29 -45 -48 -106 -132 -135 -181 -184 -210 -244 -251 -256 -314 -325 -348 -359 -417 -422 -429 0
-3 -29 -45 -48 -106 -132 -135 -181 -184 -210 -243 -254 -315 -322 -327 -346 -351 -358 -419 -430 0
-3 -29 -45 -48 -106 -132 -135 -181 -184 -210 -243 -254 -312 -317 -324 -349 -356 -361 -419 -430 0
-3 -29 -45 -48 -106 -132 -135 -181 -184 -210 -243 -251 -256 -315 -324 -349 -358 -417 -422 -430 0
-3 -29 -45 -48 -106 -132 -135 -181 -184 -210 -243 -244 -256 -317 -322 -351 -356 -417 -429 -430 0
-3 -29 -45 -48 -106 -132 -135 -181 -184 -210 -243 -244 -251 -312 -327 -346 -361 -422 -429 -430 0
-3 -29 -45 -48 -106 -132 -135 -181 -184 -210 -241 -256 -317 -324 -325 -348 -349 -356 -417 -432 0
-3 -29 -45 -48 -106 -132 -135 -181 -184 -210 -241 -256 -314 -315 -322 -351 -358 -359 -417 -432 0
-3 -29 -45 -48 -106 -132 -135 -181 -184 -210 -241 -253 -254 -317 -322 -351 -356 -419 -420 -432 0
-3 -29 -45 -48 -106 -132 -135 -181 -184 -210 -241 -246 -254 -315 -324 -349 -358 -419 -427 -432 0
-3 -29 -45 -48 -106 -132 -135 -181 -184 -210 -241 -246 -253 -314 -325 -348 -359 -420 -427 -432 0
-3 -29 -44 -49 -106 -131 -136 -180 -185 -210 -245 -253 -254 -313 -326 -347 -360 -419 -420 -428 0
-3 -29 -44 -49 -106 -131 -136 -180 -185 -210 -245 -252 -314 -315 -326 -347 -358 -359 -421 -428 0
-3 -29 -44 -49 -106 -131 -136 -180 -185 -210 -245 -252 -313 -324 -325 -348 -349 -360 -421 -428 0
-3 -29 -44 -49 -106 -131 -136 -180 -185 -210 -244 -253 -314 -323 -326 -347 -350 -359 -420 -429 0
-3 -29 -44 -49 -106 -131 -136 -180 -185 -210 -244 -253 -313 -316 -325 -348 -357 -360 -420 -429 0
-3 -29 -44 -49 -106 -131 -136 -180 -185 -210 -244 -252 -255 -314 -325 -348 -359 -418 -421 -429 0
-3 -29 -44 -49 -106 -131 -136 -180 -185 -210 -243 -254 -315 -323 -326 -347 -350 -358 -419 -430 0
-3 -29 -44 -49 -106 -131 -136 -180 -185 -210 -243 -254 -313 -316 -324 -349 -357 -360 -419 -430 0
-3 -29 -44 -49 -106 -131 -136 -180 -185 -210 -243 -252 -255 -315 -324 -349 -358 -418 -421 -430 0
-3 -29 -44 -49 -106 -131 -136 -180 -185 -210 -243 -244 -255 -316 -323 -350 -357 -418 -429 -430 0
-3 -29 -44 -49 -106 -131 -136 -180 -185 -210 -243 -244 -252 -313 -326 -347 -360 -421 -429 -430 0
-3 -29 -44 -49 -106 -131 -136 -180 -185 -210 -242 -255 -316 -324 -325 -348 -349 -357 -418 -431 0
-3 -29 -44 -49 -106 -131 -136 -180 -185 -210 -242 -255 -314 -315 -323 -350 -358 -359 -418 -431 0
-3 -29 -44 -49 -106 -131 -136 -180 -185 -210 -242 -253 -254 -316 -323 -350 -357 -419 -420 -431 0
-3 -29 -44 -49 -106 -131 -136 -180 -185 -210 -242 -245 -254 -315 -324 -349 -358 -419 -428 -431 0
-3 -29 -44 -49 -106 -131 -136 -180 -185 -210 -242 -245 -253 -314 -325 -348 -359 -420 -428 -431 0
-3 -13 -17 -23 -149 -158 -166 -185 -193 -202 -279 -290 -300 -302 -335 -338 -371 -373 -383 -394 0
-3 -13 -17 -23 -149 -158 -166 -185 -193 -202 -279 -288 -303 -313 -335 -338 -360 -370 -385 -394 0
-3 -13 -17 -23 -149 -158 -166 -185 -193 -202 -279 -288 -302 -326 -334 -339 -347 -371 -385 -394 0
-3 -13 -17 -23 -149 -158 -166 -185 -193 -202 -277 -290 -303 -324 -335 -338 -349 -370 -383 -396 0
-3 -13 -17 -23 -149 -158 -166 -185 -193 -202 -277 -290 -302 -315 -334 -339 -358 -371 -383 -396 0
-3 -13 -17 -23 -149 -158 -166 -185 -193 -202 -277 -288 -301 -303 -334 -339 -370 -372 -385 -396 0
-3 -13 -17 -23 -149 -158 -166 -185 -193 -202 -269 -300 -313 -324 -335 -338 -349 -360 -373 -404 0
-3 -13 -17 -23 -149 -158 -166 -185 -193 -202 -269 -300 -302 -315 -326 -347 -358 -371 -373 -404 0
-3 -13 -17 -23 -149 -158 -166 -185 -193 -202 -269 -288 -301 -313 -326 -347 -360 -372 -385 -404 0
-3 -13 -17 -23 -149 -158 -166 -185 -193 -202 -269 -277 -301 -315 -324 -349 -358 -372 -396 -404 0
-3 -13 -17 -23 -149 -158 -166 -185 -193 -202 -269 -277 -288 -302 -335 -338 -371 -385 -396 -404 0
-3 -13 -17 -23 -149 -158 -166 -185 -193 -202 -268 -301 -315 -326 -334 -339 -347 -358 -372 -405 0
-3 -13 -17 -23 -149 -158 -166 -185 -193 -202 -268 -301 -303 -313 -324 -349 -360 -370 -372 -405 0
-3 -13 -17 -23 -149 -158 -166 -185 -193 -202 -268 -290 -300 -315 -324 -349 -358 -373 -383 -405 0
-3 -13 -17 -23 -149 -158 -166 -185 -193 -202 -268 -279 -300 -313 -326 -347 -360 -373 -394 -405 0
-3 -13 -17 -23 -149 -158 -166 -185 -193 -202 -268 -279 -290 -303 -334 -339 -370 -383 -394 -405 0
-3 -13 -16 -24 -149 -157 -167 -184 -194 -202 -279 -291 -299 -302 -335 -338 -371 -374 -382 -394 0
-3 -13 -16 -24 -149 -157 -167 -184 -194 -202 -270 -299 -312 -324 -335 -338 -349 -361 -374 -403 0
-3 -13 -16 -24 -149 -157 -167 -184 -194 -202 -268 -301 -304 -312 -324 -349 -361 -369 -372 -405 0
-3 -13 -16 -24 -149 -157 -167 -184 -194 -202 -268 -279 -291 -304 -333 -340 -369 -382 -394 -405 0
-3 -13 -15 -26 -149 -156 -169 -182 -195 -202 -277 -291 -299 -303 -334 -339 -370 -374 -382 -396 0
-3 -13 -15 -26 -149 -156 -169 -182 -195 -202 -270 -299 -312 -326 -334 -339 -347 -361 -374 -403 0
-3 -13 -15 -26 -149 -156 -169 -182 -195 -202 -269 -300 -304 -312 -326 -347 -361 -369 -373 -404 0
-3 -13 -15 -26 -149 -156 -169 -182 -195 -202 -269 -277 -291 -304 -333 -340 -369 -382 -396 -404 0
-3 -12 -18 -23 -148 -159 -166 -185 -192 -203 -280 -289 -300 -302 -335 -338 -371 -373 -384 -393 0
-3 -12 -18 -23 -148 -159 -166 -185 -192 -203 -280 -287 -303 -314 -335 -338 -359 -370 -386 -393 0
-3 -12 -18 -23 -148 -159 -166 -185 -192 -203 -280 -287 -302 -325 -334 -339 -348 -371 -386 -393 0
-3 -12 -18 -23 -148 -159 -166 -185 -192 -203 -278 -289 -303 -323 -335 -338 -350 -370 -384 -395 0
-3 -12 -18 -23 -148 -159 -166 -185 -192 -203 -278 -289 -302 -316 -334 -339 -357 -371 -384 -395 0
-3 -12 -18 -23 -148 -159 -166 -185 -192 -203 -278 -287 -301 -303 -334 -339 -370 -372 -386 -395 0
-3 -12 -18 -23 -148 -159 -166 -185 -192 -203 -269 -300 -314 -323 -335 -338 -350 -359 -373 -404 0
-3 -12 -18 -23 -148 -159 -166 -185 -192 -203 -269 -300 -302 -316 -325 -348 -357 -371 -373 -404 0
-3 -12 -18 -23 -148 -159 -166 -185 -192 -203 -269 -287 -301 -314 -325 -348 -359 -372 -386 -404 0
-3 -12 -18 -23 -148 -159 -166 -185 -192 -203 -269 -278 -301 -316 -323 -350 -357 -372 -395 -404 0
-3 -12 -18 -23 -148 -159 -166 -185 -192 -203 -269 -278 -287 -302 -335 -338 -371 -386 -395 -404 0
-3 -12 -18 -23 -148 -159 -166 -185 -192 -203 -268 -301 -316 -325 -334 -339 -348 -357 -372 -405 0
-3 -12 -18 -23 -148 -159 -166 -185 -192 -203 -268 -301 -303 -314 -323 -350 -359 -370 -372 -405 0
-3 -12 -18 -23 -148 -159 -166 -185 -192 -203 -268 -289 -300 -316 -323 -350 -357 -373 -384 -405 0
-3 -12 -18 -23 -148 -159 -166 -185 -192 -203 -268 -280 -300 -314 -325 -348 -359 -373 -393 -405 0
-3 -12 -18 -23 -148 -159 -166 -185 -192 -203 -268 -280 -289 -303 -334 -339 -370 -384 -393 -405 0
-3 -12 -16 -25 -148 -157 -168 -183 -194 -203 -280 -291 -298 -302 -335 -338 -371 -375 -382 -393 0
-3 -12 -16 -25 -148 -157 -168 -183 -194 -203 -271 -298 -312 -323 -335 -338 -350 -361 -375 -402 0
-3 -12 -16 -25 -148 -157 -168 -183 -194 -203 -268 -301 -305 -312 -323 -350 -361 -368 -372 -405 0
-3 -12 -16 -25 -148 -157 -168 -183 -194 -203 -268 -280 -291 -305 -332 -341 -368 -382 -393 -405 0
-3 -12 -15 -27 -148 -156 -170 -181 -195 -203 -278 -291 -298 -303 -334 -339 -370 -375 -382 -395 0
-3 -12 -15 -27 -148 -156 -170 -181 -195 -203 -271 -298 -312 -325 -334 -339 -348 -361 -375 -402 0
-3 -12 -15 -27 -148 -156 -170 -181 -195 -203 -269 -300 -305 -312 -325 -348 -361 -368 -373 -404 0
-3 -12 -15 -27 -148 -156 -170 -181 -195 -203 -269 -278 -291 -305 -332 -341 -368 -382 -395 -404 0
-3 -11 -18 -24 -147 -159 -167 -184 -192 -204 -278 -286 -301 -304 -333 -340 -369 -372 -387 -395 0
-3 -11 -18 -24 -147 -159 -167 -184 -192 -204 -270 -299 -302 -317 -325 -348 -356 -371 -374 -403 0
-3 -11 -18 -24 -147 -159 -167 -184 -192 -204 -270 -278 -286 -302 -335 -338 -371 -387 -395 -403 0
-3 -11 -18 -24 -147 -159 -167 -184 -192 -204 -268 -301 -317 -325 -333 -340 -348 -356 -372 -405 0
-3 -11 -17 -25 -147 -158 -168 -183 -193 -204 -277 -286 -301 -305 -332 -341 -368 -372 -387 -396 0
-3 -11 -17 -25 -147 -158 -168 -183 -193 -204 -271 -298 -302 -317 -326 -347 -356 -371 -375 -402 0
-3 -11 -17 -25 -147 -158 -168 -183 -193 -204 -271 -277 -286 -302 -335 -338 -371 -387 -396 -402 0
-3 -11 -17 -25 -147 -158 -168 -183 -193 -204 -268 -301 -317 -326 -332 -341 -347 -356 -372 -405 0
-3 -11 -15 -28 -147 -156 -171 -180 -195 -204 -278 -290 -298 -304 -333 -340 -369 -375 -383 -395 0
-3 -11 -15 -28 -147 -156 -171 -180 -195 -204 -278 -289 -305 -313 -333 -340 -360 -368 -384 -395 0
-3 -11 -15 -28 -147 -156 -171 -180 -195 -204 -278 -289 -304 -326 -332 -341 -347 -369 -384 -395 0
-3 -11 -15 -28 -147 -156 -171 -180 -195 -204 -277 -290 -305 -325 -333 -340 -348 -368 -383 -396 0
-3 -11 -15 -28 -147 -156 -171 -180 -195 -204 -277 -290 -304 -314 -332 -341 -359 -369 -383 -396 0
-3 -11 -15 -28 -147 -156 -171 -180 -195 -204 -277 -289 -299 -305 -332 -341 -368 -374 -384 -396 0
-3 -11 -15 -28 -147 -156 -171 -180 -195 -204 -271 -298 -313 -325 -333 -340 -348 -360 -375 -402 0
-3 -11 -15 -28 -147 -156 -171 -180 -195 -204 -271 -298 -304 -314 -326 -347 -359 -369 -375 -402 0
-3 -11 -15 -28 -147 -156 -171 -180 -195 -204 -271 -289 -299 -313 -326 -347 -360 -374 -384 -402 0
-3 -11 -15 -28 -147 -156 -171 -180 -195 -204 -271 -277 -299 -314 -325 -348 -359 -374 -396 -402 0
-3 -11 -15 -28 -147 -156 -171 -180 -195 -204 -271 -277 -289 -304 -333 -340 -369 -384 -396 -402 0
-3 -11 -15 -28 -147 -156 -171 -180 -195 -204 -270 -299 -314 -326 -332 -341 -347 -359 -374 -403 0
-3 -11 -15 -28 -147 -156 -171 -180 -195 -204 -270 -299 -305 -313 -325 -348 -360 -368 -374 -403 0
-3 -11 -15 -28 -147 -156 -171 -180 -195 -204 -270 -290 -298 -314 -325 -348 -359 -375 -383 -403 0
-3 -11 -15 -28 -147 -156 -171 -180 -195 -204 -270 -278 -298 -313 -326 -347 -360 -375 -395 -403 0
-3 -11 -15 -28 -147 -156 -171 -180 -195 -204 -270 -278 -290 -305 -332 -341 -368 -383 -395 -403 0
-3 -10 -18 -26 -146 -159 -169 -182 -192 -205 -280 -286 -300 -304 -333 -340 -369 -373 -387 -393 0
-3 -10 -18 -26 -146 -159 -169 -182 -192 -205 -270 -299 -303 -317 -323 -350 -356 -370 -374 -403 0
-3 -10 -18 -26 -146 -159 -169 -182 -192 -205 -270 -280 -286 -303 -334 -339 -370 -387 -393 -403 0
-3 -10 -18 -26 -146 -159 -169 -182 -192 -205 -269 -300 -317 -323 -333 -340 -350 -356 -373 -404 0
-3 -10 -17 -27 -146 -158 -170 -181 -193 -205 -279 -286 -300 -305 -332 -341 -368 -373 -387 -394 0
-3 -10 -17 -27 -146 -158 -170 -181 -193 -205 -271 -298 -303 -317 -324 -349 -356 -370 -375 -402 0
-3 -10 -17 -27 -146 -158 -170 -181 -193 -205 -271 -279 -286 -303 -334 -339 -370 -387 -394 -402 0
-3 -10 -17 -27 -146 -158 -170 -181 -193 -205 -269 -300 -317 -324 -332 -341 -349 -356 -373 -404 0
-3 -10 -16 -28 -146 -157 -171 -180 -194 -205 -280 -288 -298 -304 -333 -340 -369 -375 -385 -393 0
-3 -10 -16 -28 -146 -157 -171 -180 -194 -205 -280 -287 -305 -315 -333 -340 -358 -368 -386 -393 0
-3 -10 -16 -28 -146 -157 -171 -180 -194 -205 -280 -287 -304 -324 -332 -341 -349 -369 -386 -393 0
-3 -10 -16 -28 -146 -157 -171 -180 -194 -205 -279 -288 -305 -323 -333 -340 -350 -368 -385 -394 0
-3 -10 -16 -28 -146 -157 -171 -180 -194 -205 -279 -288 -304 -316 -332 -341 -357 -369 -385 -394 0
-3 -10 -16 -28 -146 -157 -171 -180 -194 -205 -279 -287 -299 -305 -332 -341 -368 -374 -386 -394 0
-3 -10 -16 -28 -146 -157 -171 -180 -194 -205 -271 -298 -315 -323 -333 -340 -350 -358 -375 -402 0
-3 -10 -16 -28 -146 -157 -171 -180 -194 -205 -271 -298 -304 -316 -324 -349 -357 -369 -375 -402 0
-3 -10 -16 -28 -146 -157 -171 -180 -194 -205 -271 -287 -299 -315 -324 -349 -358 -374 -386 -402 0
-3 -10 -16 -28 -146 -157 -171 -180 -194 -205 -271 -279 -299 -316 -323 -350 -357 -374 -394 -402 0
-3 -10 -16 -28 -146 -157 -171 -180 -194 -205 -271 -279 -287 -304 -333 -340 -369 -386 -394 -402 0
-3 -10 -16 -28 -146 -157 -171 -180 -194 -205 -270 -299 -316 -324 -332 -341 -349 -357 -374 -403 0
-3 -10 -16 -28 -146 -157 -171 -180 -194 -205 -270 -299 -305 -315 -323 -350 -358 -368 -374 -403 0
-3 -10 -16 -28 -146 -157 -171 -180 -194 -205 -270 -288 -298 -316 -323 -350 -357 -375 -385 -403 0
-3 -10 -16 -28 -146 -157 -171 -180 -194 -205 -270 -280 -298 -315 -324 -349 -358 -375 -393 -403 0
-3 -10 -16 -28 -146 -157 -171 -180 -194 -205 -270 -280 -288 -305 -332 -341 -368 -385 -393 -403 0
-3 -8 -25 -26 -141 -168 -169 -182 -183 -210 -281 -287 -290 -312 -327 -346 -361 -383 -386 -392 0
-3 -8 -25 -26 -141 -168 -169 -182 -183 -210 -281 -286 -313 -316 -327 -346 -357 -360 -387 -392 0
-3 -8 -25 -26 -141 -168 -169 -182 -183 -210 -281 -286 -312 -323 -326 -347 -350 -361 -387 -392 0
-3 -8 -25 -26 -141 -168 -169 -182 -183 -210 -280 -287 -313 -322 -327 -346 -351 -360 -386 -393 0
-3 -8 -25 -26 -141 -168 -169 -182 -183 -210 -280 -287 -312 -317 -326 -347 -356 -361 -386 -393 0
-3 -8 -25 -26 -141 -168 -169 -182 -183 -210 -280 -286 -291 -313 -326 -347 -360 -382 -387 -393 0
-3 -8 -25 -26 -141 -168 -169 -182 -183 -210 -277 -290 -316 -322 -327 -346 -351 -357 -383 -396 0
-3 -8 -25 -26 -141 -168 -169 -182 -183 -210 -277 -290 -312 -317 -323 -350 -356 -361 -383 -396 0
-3 -8 -25 -26 -141 -168 -169 -182 -183 -210 -277 -286 -291 -316 -323 -350 -357 -382 -387 -396 0
-3 -8 -25 -26 -141 -168 -169 -182 -183 -210 -277 -280 -291 -317 -322 -351 -356 -382 -393 -396 0
-3 -8 -25 -26 -141 -168 -169 -182 -183 -210 -277 -280 -286 -312 -327 -346 -361 -387 -393 -396 0
-3 -8 -25 -26 -141 -168 -169 -182 -183 -210 -276 -291 -317 -323 -326 -347 -350 -356 -382 -397 0
-3 -8 -25 -26 -141 -168 -169 -182 -183 -210 -276 -291 -313 -316 -322 -351 -357 -360 -382 -397 0
-3 -8 -25 -26 -141 -168 -169 -182 -183 -210 -276 -287 -290 -317 -322 -351 -356 -383 -386 -397 0
-3 -8 -25 -26 -141 -168 -169 -182 -183 -210 -276 -281 -290 -316 -323 -350 -357 -383 -392 -397 0
-3 -8 -25 -26 -141 -168 -169 -182 -183 -210 -276 -281 -287 -313 -326 -347 -360 -386 -392 -397 0
-3 -8 -24 -27 -141 -167 -170 -181 -184 -210 -281 -288 -289 -312 -327 -346 -361 -384 -385 -392 0
-3 -8 -24 -27 -141 -167 -170 -181 -184 -210 -281 -286 -314 -315 -327 -346 -358 -359 -387 -392 0
-3 -8 -24 -27 -141 -167 -170 -181 -184 -210 -281 -286 -312 -324 -325 -348 -349 -361 -387 -392 0
-3 -8 -24 -27 -141 -167 -170 -181 -184 -210 -279 -288 -314 -322 -327 -346 -351 -359 -385 -394 0
-3 -8 -24 -27 -141 -167 -170 -181 -184 -210 -279 -288 -312 -317 -325 -348 -356 -361 -385 -394 0
-3 -8 -24 -27 -141 -167 -170 -181 -184 -210 -279 -286 -291 -314 -325 -348 -359 -382 -387 -394 0
-3 -8 -24 -27 -141 -167 -170 -181 -184 -210 -278 -289 -315 -322 -327 -346 -351 -358 -384 -395 0
-3 -8 -24 -27 -141 -167 -170 -181 -184 -210 -278 -289 -312 -317 -324 -349 -356 -361 -384 -395 0
-3 -8 -24 -27 -141 -167 -170 -181 -184 -210 -278 -286 -291 -315 -324 -349 -358 -382 -387 -395 0
-3 -8 -24 -27 -141 -167 -170 -181 -184 -210 -278 -279 -291 -317 -322 -351 -356 -382 -394 -395 0
-3 -8 -24 -27 -141 -167 -170 -181 -184 -210 -278 -279 -286 -312 -327 -346 -361 -387 -394 -395 0
-3 -8 -24 -27 -141 -167 -170 -181 -184 -210 -276 -291 -317 -324 -325 -348 -349 -356 -382 -397 0
-3 -8 -24 -27 -141 -167 -170 -181 -184 -210 -276 -291 -314 -315 -322 -351 -358 -359 -382 -397 0
-3 -8 -24 -27 -141 -167 -170 -181 -184 -210 -276 -288 -289 -317 -322 -351 -356 -384 -385 -397 0
-3 -8 -24 -27 -141 -167 -170 -181 -184 -210 -276 -281 -289 -315 -324 -349 -358 -384 -392 -397 0
-3 -8 -24 -27 -141 -167 -170 -181 -184 -210 -276 -281 -288 -314 -325 -348 -359 -385 -392 -397 0
-3 -8 -23 -28 -141 -166 -171 -180 -185 -210 -280 -288 -289 -313 -326 -347 -360 -384 -385 -393 0
-3 -8 -23 -28 -141 -166 -171 -180 -185 -210 -280 -287 -314 -315 -326 -347 -358 -359 -386 -393 0
-3 -8 -23 -28 -141 -166 -171 -180 -185 -210 -280 -287 -313 -324 -325 -348 -349 -360 -386 -393 0
-3 -8 -23 -28 -141 -166 -171 -180 -185 -210 -279 -288 -314 -323 -326 -347 -350 -359 -385 -394 0
-3 -8 -23 -28 -141 -166 -171 -180 -185 -210 -279 -288 -313 -316 -325 -348 -357 -360 -385 -394 0
-3 -8 -23 -28 -141 -166 -171 -180 -185 -210 -279 -287 -290 -314 -325 -348 -359 -383 -386 -394 0
-3 -8 -23 -28 -141 -166 -171 -180 -185 -210 -278 -289 -315 -323 -326 -347 -350 -358 -384 -395 0
-3 -8 -23 -28 -141 -166 -171 -180 -185 -210 -278 -289 -313 -316 -324 -349 -357 -360 -384 -395 0
-3 -8 -23 -28 -141 -166 -171 -180 -185 -210 -278 -287 -290 -315 -324 -349 -358 -383 -386 -395 0
-3 -8 -23 -28 -141 -166 -171 -180 -185 -210 -278 -279 -290 -316 -323 -350 -357 -383 -394 -395 0
-3 -8 -23 -28 -141 -166 -171 -180 -185 -210 -278 -279 -287 -313 -326 -347 -360 -386 -394 -395 0
-3 -8 -23 -28 -141 -166 -171 -180 -185 -210 -277 -290 -316 -324 -325 -348 -349 -357 -383 -396 0
-3 -8 -23 -28 -141 -166 -171 -180 -185 -210 -277 -290 -314 -315 -323 -350 -358 -359 -383 -396 0
-3 -8 -23 -28 -141 -166 -171 -180 -185 -210 -277 -288 -289 -316 -323 -350 -357 -384 -385 -396 0
-3 -8 -23 -28 -141 -166 -171 -180 -185 -210 -277 -280 -289 -315 -324 -349 -358 -384 -393 -396 0
-3 -8 -23 -28 -141 -166 -171 -180 -185 -210 -277 -280 -288 -314 -325 -348 -359 -385 -393 -396 0
-2 -54 -67 -69 -90 -98 -100 -191 -193 -206 -244 -259 -273 -277 -301 -372 -396 -400 -414 -429 0
-2 -54 -67 -69 -90 -98 -100 -191 -193 -206 -242 -261 -272 -279 -300 -373 -394 -401 -412 -431 0
-2 -54 -67 -69 -90 -98 -100 -191 -193 -206 -238 -242 -259 -272 -301 -372 -401 -414 -431 -435 0
-2 -54 -67 -69 -90 -98 -100 -191 -193 -206 -237 -244 -261 -273 -300 -373 -400 -412 -429 -436 0
-2 -53 -68 -69 -89 -99 -100 -191 -192 -207 -245 -258 -273 -278 -301 -372 -395 -400 -415 -428 0
-2 -53 -68 -69 -89 -99 -100 -191 -192 -207 -243 -260 -272 -280 -300 -373 -393 -401 -413 -430 0
-2 -53 -68 -69 -89 -99 -100 -191 -192 -207 -238 -243 -258 -272 -301 -372 -401 -415 -430 -435 0
-2 -53 -68 -69 -89 -99 -100 -191 -192 -207 -237 -245 -260 -273 -300 -373 -400 -413 -428 -436 0
-2 -52 -65 -74 -88 -96 -105 -186 -195 -208 -243 -260 -275 -277 -299 -374 -396 -398 -413 -430 0
-2 -52 -65 -74 -88 -96 -105 -186 -195 -208 -242 -261 -274 -278 -298 -375 -395 -399 -412 -431 0
-2 -52 -65 -74 -88 -96 -105 -186 -195 -208 -240 -242 -260 -274 -299 -374 -399 -413 -431 -433 0
-2 -52 -65 -74 -88 -96 -105 -186 -195 -208 -239 -243 -261 -275 -298 -375 -398 -412 -430 -434 0
-2 -51 -66 -74 -87 -97 -105 -186 -194 -209 -245 -258 -275 -279 -299 -374 -394 -398 -415 -428 0
-2 -51 -66 -74 -87 -97 -105 -186 -194 -209 -244 -259 -274 -280 -298 -375 -393 -399 -414 -429 0
-2 -51 -66 -74 -87 -97 -105 -186 -194 -209 -240 -244 -258 -274 -299 -374 -399 -415 -429 -433 0
-2 -51 -66 -74 -87 -97 -105 -186 -194 -209 -239 -245 -259 -275 -298 -375 -398 -414 -428 -434 0
-2 -50 -71 -72 -86 -102 -103 -188 -189 -210 -246 -258 -261 -276 -297 -376 -397 -412 -415 -427 0
-2 -50 -71 -72 -86 -102 -103 -188 -189 -210 -246 -257 -277 -280 -297 -376 -393 -396 -416 -427 0
-2 -50 -71 -72 -86 -102 -103 -188 -189 -210 -246 -257 -276 -293 -296 -377 -380 -397 -416 -427 0
-2 -50 -71 -72 -86 -102 -103 -188 -189 -210 -245 -258 -277 -292 -297 -376 -381 -396 -415 -428 0
-2 -50 -71 -72 -86 -102 -103 -188 -189 -210 -245 -258 -276 -281 -296 -377 -392 -397 -415 -428 0
-2 -50 -71 -72 -86 -102 -103 -188 -189 -210 -245 -257 -262 -277 -296 -377 -396 -411 -416 -428 0
-2 -50 -71 -72 -86 -102 -103 -188 -189 -210 -242 -261 -280 -292 -297 -376 -381 -393 -412 -431 0
-2 -50 -71 -72 -86 -102 -103 -188 -189 -210 -242 -261 -276 -281 -293 -380 -392 -397 -412 -431 0
-2 -50 -71 -72 -86 -102 -103 -188 -189 -210 -242 -257 -262 -280 -293 -380 -393 -411 -416 -431 0
-2 -50 -71 -72 -86 -102 -103 -188 -189 -210 -242 -245 -262 -281 -292 -381 -392 -411 -428 -431 0
-2 -50 -71 -72 -86 -102 -103 -188 -189 -210 -242 -245 -257 -276 -297 -376 -397 -416 -428 -431 0
-2 -50 -71 -72 -86 -102 -103 -188 -189 -210 -241 -262 -281 -293 -296 -377 -380 -392 -411 -432 0
-2 -50 -71 -72 -86 -102 -103 -188 -189 -210 -241 -262 -277 -280 -292 -381 -393 -396 -411 -432 0
-2 -50 -71 -72 -86 -102 -103 -188 -189 -210 -241 -258 -261 -281 -292 -381 -392 -412 -415 -432 0
-2 -50 -71 -72 -86 -102 -103 -188 -189 -210 -241 -246 -261 -280 -293 -380 -393 -412 -427 -432 0
-2 -50 -71 -72 -86 -102 -103 -188 -189 -210 -241 -246 -258 -277 -296 -377 -396 -415 -427 -432 0
-2 -50 -70 -73 -86 -101 -104 -187 -190 -210 -246 -259 -260 -276 -297 -376 -397 -413 -414 -427 0
-2 -50 -70 -73 -86 -101 -104 -187 -190 -210 -246 -257 -278 -279 -297 -376 -394 -395 -416 -427 0
-2 -50 -70 -73 -86 -101 -104 -187 -190 -210 -246 -257 -276 -294 -295 -378 -379 -397 -416 -427 0
-2 -50 -70 -73 -86 -101 -104 -187 -190 -210 -244 -259 -278 -292 -297 -376 -381 -395 -414 -429 0
-2 -50 -70 -73 -86 -101 -104 -187 -190 -210 -244 -259 -276 -281 -295 -378 -392 -397 -414 -429 0
-2 -50 -70 -73 -86 -101 -104 -187 -190 -210 -244 -257 -262 -278 -295 -378 -395 -411 -416 -429 0
-2 -50 -70 -73 -86 -101 -104 -187 -190 -210 -243 -260 -279 -292 -297 -376 -381 -394 -413 -430 0
-2 -50 -70 -73 -86 -101 -104 -187 -190 -210 -243 -260 -276 -281 -294 -379 -392 -397 -413 -430 0
-2 -50 -70 -73 -86 -101 -104 -187 -190 -210 -243 -257 -262 -279 -294 -379 -394 -411 -416 -430 0
-2 -50 -70 -73 -86 -101 -104 -187 -190 -210 -243 -244 -262 -281 -292 -381 -392 -411 -429 -430 0
-2 -50 -70 -73 -86 -101 -104 -187 -190 -210 -243 -244 -257 -276 -297 -376 -397 -416 -429 -430 0
-2 -50 -70 -73 -86 -101 -104 -187 -190 -210 -241 -262 -281 -294 -295 -378 -379 -392 -411 -432 0
-2 -50 -70 -73 -86 -101 -104 -187 -190 -210 -241 -262 -278 -279 -292 -381 -394 -395 -411 -432 0
-2 -50 -70 -73 -86 -101 -104 -187 -190 -210 -241 -259 -260 -281 -292 -381 -392 -413 -414 -432 0
-2 -50 -70 -73 -86 -101 -104 -187 -190 -210 -241 -246 -260 -279 -294 -379 -394 -413 -427 -432 0
-2 -50 -70 -73 -86 -101 -104 -187 -190 -210 -241 -246 -259 -278 -295 -378 -395 -414 -427 -432 0
-2 -50 -69 -74 -86 -100 -105 -186 -191 -210 -245 -259 -260 -277 -296 -377 -396 -413 -414 -428 0
-2 -50 -69 -74 -86 -100 -105 -186 -191 -210 -245 -258 -278 -279 -296 -377 -394 -395 -415 -428 0
-2 -50 -69 -74 -86 -100 -105 -186 -191 -210 -245 -258 -277 -294 -295 -378 -379 -396 -415 -428 0
-2 -50 -69 -74 -86 -100 -105 -186 -191 -210 -244 -259 -278 -293 -296 -377 -380 -395 -414 -429 0
-2 -50 -69 -74 -86 -100 -105 -186 -191 -210 -244 -259 -277 -280 -295 -378 -393 -396 -414 -429 0
-2 -50 -69 -74 -86 -100 -105 -186 -191 -210 -244 -258 -261 -278 -295 -378 -395 -412 -415 -429 0
-2 -50 -69 -74 -86 -100 -105 -186 -191 -210 -243 -260 -279 -293 -296 -377 -380 -394 -413 -430 0
-2 -50 -69 -74 -86 -100 -105 -186 -191 -210 -243 -260 -277 -280 -294 -379 -393 -396 -413 -430 0
-2 -50 -69 -74 -86 -100 -105 -186 -191 -210 -243 -258 -261 -279 -294 -379 -394 -412 -415 -430 0
-2 -50 -69 -74 -86 -100 -105 -186 -191 -210 -243 -244 -261 -280 -293 -380 -393 -412 -429 -430 0
-2 -50 -69 -74 -86 -100 -105 -186 -191 -210 -243 -244 -258 -277 -296 -377 -396 -415 -429 -430 0
-2 -50 -69 -74 -86 -100 -105 -186 -191 -210 -242 -261 -280 -294 -295 -378 -379 -393 -412 -431 0
-2 -50 -69 -74 -86 -100 -105 -186 -191 -210 -242 -261 -278 -279 -293 -380 -394 -395 -412 -431 0
-2 -50 -69 -74 -86 -100 -105 -186 -191 -210 -242 -259 -260 -280 -293 -380 -393 -413 -414 -431 0
-2 -50 -69 -74 -86 -100 -105 -186 -191 -210 -242 -245 -260 -279 -294 -379 -394 -413 -428 -431 0
-2 -50 -69 -74 -86 -100 -105 -186 -191 -210 -242 -245 -259 -278 -295 -378 -395 -414 -428 -431 0
-2 -34 -42 -44 -110 -123 -125 -191 -193 -206 -244 -259 -302 -326 -330 -343 -347 -371 -414 -429 0
-2 -34 -42 -44 -110 -123 -125 -191 -193 -206 -242 -261 -303 -324 -331 -342 -349 -370 -412 -431 0
-2 -34 -42 -44 -110 -123 -125 -191 -193 -206 -238 -242 -259 -302 -331 -342 -371 -414 -431 -435 0
-2 -34 -42 -44 -110 -123 -125 -191 -193 -206 -237 -244 -261 -303 -330 -343 -370 -412 -429 -436 0
-2 -33 -43 -44 -109 -124 -125 -191 -192 -207 -245 -258 -302 -325 -330 -343 -348 -371 -415 -428 0
-2 -33 -43 -44 -109 -124 -125 -191 -192 -207 -243 -260 -303 -323 -331 -342 -350 -370 -413 -430 0
-2 -33 -43 -44 -109 -124 -125 -191 -192 -207 -238 -243 -258 -302 -331 -342 -371 -415 -430 -435 0
-2 -33 -43 -44 -109 -124 -125 -191 -192 -207 -237 -245 -260 -303 -330 -343 -370 -413 -428 -436 0
-2 -32 -40 -49 -108 -121 -130 -186 -195 -208 -243 -260 -304 -326 -328 -345 -347 -369 -413 -430 0
-2 -32 -40 -49 -108 -121 -130 -186 -195 -208 -242 -261 -305 -325 -329 -344 -348 -368 -412 -431 0
-2 -32 -40 -49 -108 -121 -130 -186 -195 -208 -240 -242 -260 -304 -329 -344 -369 -413 -431 -433 0
-2 -32 -40 -49 -108 -121 -130 -186 -195 -208 -239 -243 -261 -305 -328 -345 -368 -412 -430 -434 0
-2 -31 -41 -49 -107 -122 -130 -186 -194 -209 -245 -258 -304 -324 -328 -345 -349 -369 -415 -428 0
-2 -31 -41 -49 -107 -122 -130 -186 -194 -209 -244 -259 -305 -323 -329 -344 -350 -368 -414 -429 0
-2 -31 -41 -49 -107 -122 -130 -186 -194 -209 -240 -244 -258 -304 -329 -344 -369 -415 -429 -433 0
-2 -31 -41 -49 -107 -122 -130 -186 -194 -209 -239 -245 -259 -305 -328 -345 -368 -414 -428 -434 0
-2 -30 -46 -47 -106 -127 -128 -188 -189 -210 -246 -258 -261 -306 -327 -346 -367 -412 -415 -427 0
-2 -30 -46 -47 -106 -127 -128 -188 -189 -210 -246 -257 -307 -310 -327 -346 -363 -366 -416 -427 0
-2 -30 -46 -47 -106 -127 -128 -188 -189 -210 -246 -257 -306 -323 -326 -347 -350 -367 -416 -427 0
-2 -30 -46 -47 -106 -127 -128 -188 -189 -210 -245 -258 -307 -322 -327 -346 -351 -366 -415 -428 0
-2 -30 -46 -47 -106 -127 -128 -188 -189 -210 -245 -258 -306 -311 -326 -347 -362 -367 -415 -428 0
-2 -30 -46 -47 -106 -127 -128 -188 -189 -210 -245 -257 -262 -307 -326 -347 -366 -411 -416 -428 0
-2 -30 -46 -47 -106 -127 -128 -188 -189 -210 -242 -261 -310 -322 -327 -346 -351 -363 -412 -431 0
-2 -30 -46 -47 -106 -127 -128 -188 -189 -210 -242 -261 -306 -311 -323 -350 -362 -367 -412 -431 0
-2 -30 -46 -47 -106 -127 -128 -188 -189 -210 -242 -257 -262 -310 -323 -350 -363 -411 -416 -431 0
-2 -30 -46 -47 -106 -127 -128 -188 -189 -210 -242 -245 -262 -311 -322 -351 -362 -411 -428 -431 0
-2 -30 -46 -47 -106 -127 -128 -188 -189 -210 -242 -245 -257 -306 -327 -346 -367 -416 -428 -431 0
-2 -30 -46 -47 -106 -127 -128 -188 -189 -210 -241 -262 -311 -323 -326 -347 -350 -362 -411 -432 0
-2 -30 -46 -47 -106 -127 -128 -188 -189 -210 -241 -262 -307 -310 -322 -351 -363 -366 -411 -432 0
-2 -30 -46 -47 -106 -127 -128 -188 -189 -210 -241 -258 -261 -311 -322 -351 -362 -412 -415 -432 0
-2 -30 -46 -47 -106 -127 -128 -188 -189 -210 -241 -246 -261 -310 -323 -350 -363 -412 -427 -432 0
-2 -30 -46 -47 -106 -127 -128 -188 -189 -210 -241 -246 -258 -307 -326 -347 -366 -415 -427 -432 0
-2 -30 -45 -48 -106 -126 -129 -187 -190 -210 -246 -259 -260 -306 -327 -346 -367 -413 -414 -427 0
-2 -30 -45 -48 -106 -126 -129 -187 -190 -210 -246 -257 -308 -309 -327 -346 -364 -365 -416 -427 0
-2 -30 -45 -48 -106 -126 -129 -187 -190 -210 -246 -257 -306 -324 -325 -348 -349 -367 -416 -427 0
-2 -30 -45 -48 -106 -126 -129 -187 -190 -210 -244 -259 -308 -322 -327 -346 -351 -365 -414 -429 0
-2 -30 -45 -48 -106 -126 -129 -187 -190 -210 -244 -259 -306 -311 -325 -348 -362 -367 -414 -429 0
-2 -30 -45 -48 -106 -126 -129 -187 -190 -210 -244 -257 -262 -308 -325 -348 -365 -411 -416 -429 0
-2 -30 -45 -48 -106 -126 -129 -187 -190 -210 -243 -260 -309 -322 -327 -346 -351 -364 -413 -430 0
-2 -30 -45 -48 -106 -126 -129 -187 -190 -210 -243 -260 -306 -311 -324 -349 -362 -367 -413 -430 0
-2 -30 -45 -48 -106 -126 -129 -187 -190 -210 -243 -257 -262 -309 -324 -349 -364 -411 -416 -430 0
-2 -30 -45 -48 -106 -126 -129 -187 -190 -210 -243 -244 -262 -311 -322 -351 -362 -411 -429 -430 0
-2 -30 -45 -48 -106 -126 -129 -187 -190 -210 -243 -244 -257 -306 -327 -346 -367 -416 -429 -430 0
-2 -30 -45 -48 -106 -126 -129 -187 -190 -210 -241 -262 -311 -324 -325 -348 -349 -362 -411 -432 0
-2 -30 -45 -48 -106 -126 -129 -187 -190 -210 -241 -262 -308 -309 -322 -351 -364 -365 -411 -432 0
-2 -30 -45 -48 -106 -126 -129 -187 -190 -210 -241 -259 -260 -311 -322 -351 -362 -413 -414 -432 0
-2 -30 -45 -48 -106 -126 -129 -187 -190 -210 -241 -246 -260 -309 -324 -349 -364 -413 -427 -432 0
-2 -30 -45 -48 -106 -126 -129 -187 -190 -210 -241 -246 -259 -308 -325 -348 -365 -414 -427 -432 0
-2 -30 -44 -49 -106 -125 -130 -186 -191 -210 -245 -259 -260 -307 -326 -347 -366 -413 -414 -428 0
-2 -30 -44 -49 -106 -125 -130 -186 -191 -210 -245 -258 -308 -309 -326 -347 -364 -365 -415 -428 0
-2 -30 -44 -49 -106 -125 -130 -186 -191 -210 -245 -258 -307 -324 -325 -348 -349 -366 -415 -428 0
-2 -30 -44 -49 -106 -125 -130 -186 -191 -210 -244 -259 -308 -323 -326 -347 -350 -365 -414 -429 0
-2 -30 -44 -49 -106 -125 -130 -186 -191 -210 -244 -259 -307 -310 -325 -348 -363 -366 -414 -429 0
-2 -30 -44 -49 -106 -125 -130 -186 -191 -210 -244 -258 -261 -308 -325 -348 -365 -412 -415 -429 0
-2 -30 -44 -49 -106 -125 -130 -186 -191 -210 -243 -260 -309 -323 -326 -347 -350 -364 -413 -430 0
-2 -30 -44 -49 -106 -125 -130 -186 -191 -210 -243 -260 -307 -310 -324 -349 -363 -366 -413 -430 0
-2 -30 -44 -49 -106 -125 -130 -186 -191 -210 -243 -258 -261 -309 -324 -349 -364 -412 -415 -430 0
-2 -30 -44 -49 -106 -125 -130 -186 -191 -210 -243 -244 -261 -310 -323 -350 -363 -412 -429 -430 0
-2 -30 -44 -49 -106 -125 -130 -186 -191 -210 -243 -244 -258 -307 -326 -347 -366 -415 -429 -430 0
-2 -30 -44 -49 -106 -125 -130 -186 -191 -210 -242 -261 -310 -324 -325 -348 -349 -363 -412 -431 0
-2 -30 -44 -49 -106 -125 -130 -186 -191 -210 -242 -261 -308 -309 -323 -350 -364 -365 -412 -431 0
-2 -30 -44 -49 -106 -125 -130 -186 -191 -210 -242 -259 -260 -310 -323 -350 -363 -413 -414 -431 0
-2 -30 -44 -49 -106 -125 -130 -186 -191 -210 -242 -245 -260 -309 -324 -349 -364 -413 -428 -431 0
-2 -30 -44 -49 -106 -125 -130 -186 -191 -210 -242 -245 -259 -308 -325 -348 -365 -414 -428 -431 0
-2 -13 -21 -23 -145 -158 -160 -191 -193 -206 -279 -296 -300 -302 -331 -342 -371 -373 -377 -394 0
-2 -13 -21 -23 -145 -158 -160 -191 -193 -206 -279 -294 -303 -307 -331 -342 -366 -370 -379 -394 0
-2 -13 -21 -23 -145 -158 -160 -191 -193 -206 -279 -294 -302 -326 -330 -343 -347 -371 -379 -394 0
-2 -13 -21 -23 -145 -158 -160 -191 -193 -206 -277 -296 -303 -324 -331 -342 -349 -370 -377 -396 0
-2 -13 -21 -23 -145 -158 -160 -191 -193 -206 -277 -296 -302 -309 -330 -343 -364 -371 -377 -396 0
-2 -13 -21 -23 -145 -158 -160 -191 -193 -206 -277 -294 -301 -303 -330 -343 -370 -372 -379 -396 0
-2 -13 -21 -23 -145 -158 -160 -191 -193 -206 -273 -300 -307 -324 -331 -342 -349 -366 -373 -400 0
-2 -13 -21 -23 -145 -158 -160 -191 -193 -206 -273 -300 -302 -309 -326 -347 -364 -371 -373 -400 0
-2 -13 -21 -23 -145 -158 -160 -191 -193 -206 -273 -294 -301 -307 -326 -347 -366 -372 -379 -400 0
-2 -13 -21 -23 -145 -158 -160 -191 -193 -206 -273 -277 -301 -309 -324 -349 -364 -372 -396 -400 0
-2 -13 -21 -23 -145 -158 -160 -191 -193 -206 -273 -277 -294 -302 -331 -342 -371 -379 -396 -400 0
-2 -13 -21 -23 -145 -158 -160 -191 -193 -206 -272 -301 -309 -326 -330 -343 -347 -364 -372 -401 0
-2 -13 -21 -23 -145 -158 -160 -191 -193 -206 -272 -301 -303 -307 -324 -349 -366 -370 -372 -401 0
-2 -13 -21 -23 -145 -158 -160 -191 -193 -206 -272 -296 -300 -309 -324 -349 -364 -373 -377 -401 0
-2 -13 -21 -23 -145 -158 -160 -191 -193 -206 -272 -279 -300 -307 -326 -347 -366 -373 -394 -401 0
-2 -13 -21 -23 -145 -158 -160 -191 -193 -206 -272 -279 -296 -303 -330 -343 -370 -377 -394 -401 0
-2 -13 -20 -24 -145 -157 -161 -190 -194 -206 -279 -297 -299 -302 -331 -342 -371 -374 -376 -394 0
-2 -13 -20 -24 -145 -157 -161 -190 -194 -206 -274 -299 -306 -324 -331 -342 -349 -367 -374 -399 0
-2 -13 -20 -24 -145 -157 -161 -190 -194 -206 -272 -301 -304 -306 -324 -349 -367 -369 -372 -401 0
-2 -13 -20 -24 -145 -157 -161 -190 -194 -206 -272 -279 -297 -304 -329 -344 -369 -376 -394 -401 0
-2 -13 -19 -26 -145 -156 -163 -188 -195 -206 -277 -297 -299 -303 -330 -343 -370 -374 -376 -396 0
-2 -13 -19 -26 -145 -156 -163 -188 -195 -206 -274 -299 -306 -326 -330 -343 -347 -367 -374 -399 0
-2 -13 -19 -26 -145 -156 -163 -188 -195 -206 -273 -300 -304 -306 -326 -347 -367 -369 -373 -400 0
-2 -13 -19 -26 -145 -156 -163 -188 -195 -206 -273 -277 -297 -304 -329 -344 -369 -376 -396 -400 0
-2 -12 -22 -23 -144 -159 -160 -191 -192 -207 -280 -295 -300 -302 -331 -342 -371 -373 -378 -393 0
-2 -12 -22 -23 -144 -159 -160 -191 -192 -207 -280 -293 -303 -308 -331 -342 -365 -370 -380 -393 0
-2 -12 -22 -23 -144 -159 -160 -191 -192 -207 -280 -293 -302 -325 -330 -343 -348 -371 -380 -393 0
-2 -12 -22 -23 -144 -159 -160 -191 -192 -207 -278 -295 -303 -323 -331 -342 -350 -370 -378 -395 0
-2 -12 -22 -23 -144 -159 -160 -191 -192 -207 -278 -295 -302 -310 -330 -343 -363 -371 -378 -395 0
-2 -12 -22 -23 -144 -159 -160 -191 -192 -207 -278 -293 -301 -303 -330 -343 -370 -372 -380 -395 0
-2 -12 -22 -23 -144 -159 -160 -191 -192 -207 -273 -300 -308 -323 -331 -342 -350 -365 -373 -400 0
-2 -12 -22 -23 -144 -159 -160 -191 -192 -207 -273 -300 -302 -310 -325 -348 -363 -371 -373 -400 0
-2 -12 -22 -23 -144 -159 -160 -191 -192 -207 -273 -293 -301 -308 -325 -348 -365 -372 -380 -400 0
-2 -12 -22 -23 -144 -159 -160 -191 -192 -207 -273 -278 -301 -310 -323 -350 -363 -372 -395 -400 0
-2 -12 -22 -23 -144 -159 -160 -191 -192 -207 -273 -278 -293 -302 -331 -342 -371 -380 -395 -400 0
-2 -12 -22 -23 -144 -159 -160 -191 -192 -207 -272 -301 -310 -325 -330 -343 -348 -363 -372 -401 0
-2 -12 -22 -23 -144 -159 -160 -191 -192 -207 -272 -301 -303 -308 -323 -350 -365 -370 -372 -401 0
-2 -12 -22 -23 -144 -159 -160 -191 -192 -207 -272 -295 -300 -310 -323 -350 -363 -373 -378 -401 0
-2 -12 -22 -23 -144 -159 -160 -191 -192 -207 -272 -280 -300 -308 -325 -348 -365 -373 -393 -401 0
-2 -12 -22 -23 -144 -159 -160 -191 -192 -207 -272 -280 -295 -303 -330 -343 -370 -378 -393 -401 0
-2 -12 -20 -25 -144 -157 -162 -189 -194 -207 -280 -297 -298 -302 -331 -342 -371 -375 -376 -393 0
-2 -12 -20 -25 -144 -157 -162 -189 -194 -207 -275 -298 -306 -323 -331 -342 -350 -367 -375 -398 0
-2 -12 -20 -25 -144 -157 -162 -189 -194 -207 -272 -301 -305 -306 -323 -350 -367 -368 -372 -401 0
-2 -12 -20 -25 -144 -157 -162 -189 -194 -207 -272 -280 -297 -305 -328 -345 -368 -376 -393 -401 0
-2 -12 -19 -27 -144 -156 -164 -187 -195 -207 -278 -297 -298 -303 -330 -343 -370 -375 -376 -395 0
-2 -12 -19 -27 -144 -156 -164 -187 -195 -207 -275 -298 -306 -325 -330 -343 -348 -367 -375 -398 0
-2 -12 -19 -27 -144 -156 -164 -187 -195 -207 -273 -300 -305 -306 -325 -348 -367 -368 -373 -400 0
-2 -12 -19 -27 -144 -156 -164 -187 -195 -207 -273 -278 -297 -305 -328 -345 -368 -376 -395 -400 0
-2 -11 -22 -24 -143 -159 -161 -190 -192 -208 -278 -292 -301 -304 -329 -344 -369 -372 -381 -395 0
-2 -11 -22 -24 -143 -159 -161 -190 -192 -208 -274 -299 -302 -311 -325 -348 -362 -371 -374 -399 0
-2 -11 -22 -24 -143 -159 -161 -190 -192 -208 -274 -278 -292 -302 -331 -342 -371 -381 -395 -399 0
-2 -11 -22 -24 -143 -159 -161 -190 -192 -208 -272 -301 -311 -325 -329 -344 -348 -362 -372 -401 0
-2 -11 -21 -25 -143 -158 -162 -189 -193 -208 -277 -292 -301 -305 -328 -345 -368 -372 -381 -396 0
-2 -11 -21 -25 -143 -158 -162 -189 -193 -208 -275 -298 -302 -311 -326 -347 -362 -371 -375 -398 0
-2 -11 -21 -25 -143 -158 -162 -189 -193 -208 -275 -277 -292 -302 -331 -342 -371 -381 -396 -398 0
-2 -11 -21 -25 -143 -158 -162 -189 -193 -208 -272 -301 -311 -326 -328 -345 -347 -362 -372 -401 0
-2 -11 -19 -28 -143 -156 -165 -186 -195 -208 -278 -296 -298 -304 -329 -344 -369 -375 -377 -395 0
-2 -11 -19 -28 -143 -156 -165 -186 -195 -208 -278 -295 -305 -307 -329 -344 -366 -368 -378 -395 0
-2 -11 -19 -28 -143 -156 -165 -186 -195 -208 -278 -295 -304 -326 -328 -345 -347 -369 -378 -395 0
-2 -11 -19 -28 -143 -156 -165 -186 -195 -208 -277 -296 -305 -325 -329 -344 -348 -368 -377 -396 0
-2 -11 -19 -28 -143 -156 -165 -186 -195 -208 -277 -296 -304 -308 -328 -345 -365 -369 -377 -396 0
-2 -11 -19 -28 -143 -156 -165 -186 -195 -208 -277 -295 -299 -305 -328 -345 -368 -374 -378 -396 0
-2 -11 -19 -28 -143 -156 -165 -186 -195 -208 -275 -298 -307 -325 -329 -344 -348 -366 -375 -398 0
-2 -11 -19 -28 -143 -156 -165 -186 -195 -208 -275 -298 -304 -308 -326 -347 -365 -369 -375 -398 0
-2 -11 -19 -28 -143 -156 -165 -186 -195 -208 -275 -295 -299 -307 -326 -347 -366 -374 -378 -398 0
-2 -11 -19 -28 -143 -156 -165 -186 -195 -208 -275 -277 -299 -308 -325 -348 -365 -374 -396 -398 0
-2 -11 -19 -28 -143 -156 -165 -186 -195 -208 -275 -277 -295 -304 -329 -344 -369 -378 -396 -398 0
-2 -11 -19 -28 -143 -156 -165 -186 -195 -208 -274 -299 -308 -326 -328 -345 -347 -365 -374 -399 0
-2 -11 -19 -28 -143 -156 -165 -186 -195 -208 -274 -299 -305 -307 -325 -348 -366 -368 -374 -399 0
-2 -11 -19 -28 -143 -156 -165 -186 -195 -208 -274 -296 -298 -308 -325 -348 -365 -375 -377 -399 0
-2 -11 -19 -28 -143 -156 -165 -186 -195 -208 -274 -278 -298 -307 -326 -347 -366 -375 -395 -399 0
-2 -11 -19 -28 -143 -156 -165 -186 -195 -208 -274 -278 -296 -305 -328 -345 -368 -377 -395 -399 0
-2 -10 -22 -26 -142 -159 -163 -188 -192 -209 -280 -292 -300 -304 -329 -344 -369 -373 -381 -393 0
-2 -10 -22 -26 -142 -159 -163 -188 -192 -209 -274 -299 -303 -311 -323 -350 -362 -370 -374 -399 0
-2 -10 -22 -26 -142 -159 -163 -188 -192 -209 -274 -280 -292 -303 -330 -343 -370 -381 -393 -399 0
-2 -10 -22 -26 -142 -159 -163 -188 -192 -209 -273 -300 -311 -323 -329 -344 -350 -362 -373 -400 0
-2 -10 -21 -27 -142 -158 -164 -187 -193 -209 -279 -292 -300 -305 -328 -345 -368 -373 -381 -394 0
-2 -10 -21 -27 -142 -158 -164 -187 -193 -209 -275 -298 -303 -311 -324 -349 -362 -370 -375 -398 0
-2 -10 -21 -27 -142 -158 -164 -187 -193 -209 -275 -279 -292 -303 -330 -343 -370 -381 -394 -398 0
-2 -10 -21 -27 -142 -158 -164 -187 -193 -209 -273 -300 -311 -324 -328 -345 -349 -362 -373 -400 0
-2 -10 -20 -28 -142 -157 -165 -186 -194 -209 -280 -294 -298 -304 -329 -344 -369 -375 -379 -393 0
-2 -10 -20 -28 -142 -157 -165 -186 -194 -209 -280 -293 -305 -309 -329 -344 -364 -368 -380 -393 0
-2 -10 -20 -28 -142 -157 -165 -186 -194 -209 -280 -293 -304 -324 -328 -345 -349 -369 -380 -393 0
-2 -10 -20 -28 -142 -157 -165 -186 -194 -209 -279 -294 -305 -323 -329 -344 -350 -368 -379 -394 0
-2 -10 -20 -28 -142 -157 -165 -186 -194 -209 -279 -294 -304 -310 -328 -345 -363 -369 -379 -394 0
-2 -10 -20 -28 -142 -157 -165 -186 -194 -209 -279 -293 -299 -305 -328 -345 -368 -374 -380 -394 0
-2 -10 -20 -28 -142 -157 -165 -186 -194 -209 -275 -298 -309 -323 -329 -344 -350 -364 -375 -398 0
-2 -10 -20 -28 -142 -157 -165 -186 -194 -209 -275 -298 -304 -310 -324 -349 -363 -369 -375 -398 0
-2 -10 -20 -28 -142 -157 -165 -186 -194 -209 -275 -293 -299 -309 -324 -349 -364 -374 -380 -398 0
-2 -10 -20 -28 -142 -157 -165 -186 -194 -209 -275 -279 -299 -310 -323 -350 -363 -374 -394 -398 0
-2 -10 -20 -28 -142 -157 -165 -186 -194 -209 -275 -279 -293 -304 -329 -344 -369 -380 -394 -398 0
-2 -10 -20 -28 -142 -157 -165 -186 -194 -209 -274 -299 -310 -324 -328 -345 -349 -363 -374 -399 0
-2 -10 -20 -28 -142 -157 -165 -186 -194 -209 -274 -299 -305 -309 -323 -350 -364 -368 -374 -399 0
-2 -10 -20 -28 -142 -157 -165 -186 -194 -209 -274 -294 -298 -310 -323 -350 -363 -375 -379 -399 0
-2 -10 -20 -28 -142 -157 -165 -186 -194 -209 -274 -280 -298 -309 -324 -349 -364 -375 -393 -399 0
-2 -10 -20 -28 -142 -157 -165 -186 -194 -209 -274 -280 -294 -305 -328 -345 -368 -379 -393 -399 0
-2 -9 -25 -26 -141 -162 -163 -188 -189 -210 -281 -293 -296 -306 -327 -346 -367 -377 -380 -392 0
-2 -9 -25 -26 -141 -162 -163 -188 -189 -210 -281 -292 -307 -310 -327 -346 -363 -366 -381 -392 0
-2 -9 -25 -26 -141 -162 -163 -188 -189 -210 -281 -292 -306 -323 -326 -347 -350 -367 -381 -392 0
-2 -9 -25 -26 -141 -162 -163 -188 -189 -210 -280 -293 -307 -322 -327 -346 -351 -366 -380 -393 0
-2 -9 -25 -26 -141 -162 -163 -188 -189 -210 -280 -293 -306 -311 -326 -347 -362 -367 -380 -393 0
-2 -9 -25 -26 -141 -162 -163 -188 -189 -210 -280 -292 -297 -307 -326 -347 -366 -376 -381 -393 0
-2 -9 -25 -26 -141 -162 -163 -188 -189 -210 -277 -296 -310 -322 -327 -346 -351 -363 -377 -396 0
-2 -9 -25 -26 -141 -162 -163 -188 -189 -210 -277 -296 -306 -311 -323 -350 -362 -367 -377 -396 0
-2 -9 -25 -26 -141 -162 -163 -188 -189 -210 -277 -292 -297 -310 -323 -350 -363 -376 -381 -396 0
-2 -9 -25 -26 -141 -162 -163 -188 -189 -210 -277 -280 -297 -311 -322 -351 -362 -376 -393 -396 0
-2 -9 -25 -26 -141 -162 -163 -188 -189 -210 -277 -280 -292 -306 -327 -346 -367 -381 -393 -396 0
-2 -9 -25 -26 -141 -162 -163 -188 -189 -210 -276 -297 -311 -323 -326 -347 -350 -362 -376 -397 0
-2 -9 -25 -26 -141 -162 -163 -188 -189 -210 -276 -297 -307 -310 -322 -351 -363 -366 -376 -397 0
-2 -9 -25 -26 -141 -162 -163 -188 -189 -210 -276 -293 -296 -311 -322 -351 -362 -377 -380 -397 0
-2 -9 -25 -26 -141 -162 -163 -188 -189 -210 -276 -281 -296 -310 -323 -350 -363 -377 -392 -397 0
-2 -9 -25 -26 -141 -162 -163 -188 -189 -210 -276 -281 -293 -307 -326 -347 -366 -380 -392 -397 0
-2 -9 -24 -27 -141 -161 -164 -187 -190 -210 -281 -294 -295 -306 -327 -346 -367 -378 -379 -392 0
-2 -9 -24 -27 -141 -161 -164 -187 -190 -210 -281 -292 -308 -309 -327 -346 -364 -365 -381 -392 0
-2 -9 -24 -27 -141 -161 -164 -187 -190 -210 -281 -292 -306 -324 -325 -348 -349 -367 -381 -392 0
-2 -9 -24 -27 -141 -161 -164 -187 -190 -210 -279 -294 -308 -322 -327 -346 -351 -365 -379 -394 0
-2 -9 -24 -27 -141 -161 -164 -187 -190 -210 -279 -294 -306 -311 -325 -348 -362 -367 -379 -394 0
-2 -9 -24 -27 -141 -161 -164 -187 -190 -210 -279 -292 -297 -308 -325 -348 -365 -376 -381 -394 0
-2 -9 -24 -27 -141 -161 -164 -187 -190 -210 -278 -295 -309 -322 -327 -346 -351 -364 -378 -395 0
-2 -9 -24 -27 -141 -161 -164 -187 -190 -210 -278 -295 -306 -311 -324 -349 -362 -367 -378 -395 0
-2 -9 -24 -27 -141 -161 -164 -187 -190 -210 -278 -292 -297 -309 -324 -349 -364 -376 -381 -395 0
-2 -9 -24 -27 -141 -161 -164 -187 -190 -210 -278 -279 -297 -311 -322 -351 -362 -376 -394 -395 0
-2 -9 -24 -27 -141 -161 -164 -187 -190 -210 -278 -279 -292 -306 -327 -346 -367 -381 -394 -395 0
-2 -9 -24 -27 -141 -161 -164 -187 -190 -210 -276 -297 -311 -324 -325 -348 -349 -362 -376 -397 0
-2 -9 -24 -27 -141 -161 -164 -187 -190 -210 -276 -297 -308 -309 -322 -351 -364 -365 -376 -397 0
-2 -9 -24 -27 -141 -161 -164 -187 -190 -210 -276 -294 -295 -311 -322 -351 -362 -378 -379 -397 0
-2 -9 -24 -27 -141 -161 -164 -187 -190 -210 -276 -281 -295 -309 -324 -349 -364 -378 -392 -397 0
-2 -9 -24 -27 -141 -161 -164 -187 -190 -210 -276 -281 -294 -308 -325 -348 -365 -379 -392 -397 0
-2 -9 -23 -28 -141 -160 -165 -186 -191 -210 -280 -294 -295 -307 -326 -347 -366 -378 -379 -393 0
-2 -9 -23 -28 -141 -160 -165 -186 -191 -210 -280 -293 -308 -309 -326 -347 -364 -365 -380 -393 0
-2 -9 -23 -28 -141 -160 -165 -186 -191 -210 -280 -293 -307 -324 -325 -348 -349 -366 -380 -393 0
-2 -9 -23 -28 -141 -160 -165 -186 -191 -210 -279 -294 -308 -323 -326 -347 -350 -365 -379 -394 0
-2 -9 -23 -28 -141 -160 -165 -186 -191 -210 -279 -294 -307 -310 -325 -348 -363 -366 -379 -394 0
-2 -9 -23 -28 -141 -160 -165 -186 -191 -210 -279 -293 -296 -308 -325 -348 -365 -377 -380 -394 0
-2 -9 -23 -28 -141 -160 -165 -186 -191 -210 -278 -295 -309 -323 -326 -347 -350 -364 -378 -395 0
-2 -9 -23 -28 -141 -160 -165 -186 -191 -210 -278 -295 -307 -310 -324 -349 -363 -366 -378 -395 0
-2 -9 -23 -28 -141 -160 -165 -186 -191 -210 -278 -293 -296 -309 -324 -349 -364 -377 -380 -395 0
-2 -9 -23 -28 -141 -160 -165 -186 -191 -210 -278 -279 -296 -310 -323 -350 -363 -377 -394 -395 0
-2 -9 -23 -28 -141 -160 -165 -186 -191 -210 -278 -279 -293 -307 -326 -347 -366 -380 -394 -395 0
-2 -9 -23 -28 -141 -160 -165 -186 -191 -210 -277 -296 -310 -324 -325 -348 -349 -363 -377 -396 0
-2 -9 -23 -28 -141 -160 -165 -186 -191 -210 -277 -296 -308 -309 -323 -350 -364 -365 -377 -396 0
-2 -9 -23 -28 -141 -160 -165 -186 -191 -210 -277 -294 -295 -310 -323 -350 -363 -378 -379 -396 0
-2 -9 -23 -28 -141 -160 -165 -186 -191 -210 -277 -280 -295 -309 -324 -349 -364 -378 -393 -396 0
-2 -9 -23 -28 -141 -160 -165 -186 -191 -210 -277 -280 -294 -308 -325 -348 -365 -379 -393 -396 0
-1 -54 -57 -59 -95 -98 -100 -201 -203 -206 -254 -261 -265 -282 -301 -372 -391 -408 -412 -419 0
-1 -54 -57 -59 -95 -98 -100 -201 -203 -206 -254 -259 -283 -287 -301 -372 -386 -390 -414 -419 0
-1 -54 -57 -59 -95 -98 -100 -201 -203 -206 -254 -259 -282 -296 -300 -373 -377 -391 -414 -419 0
-1 -54 -57 -59 -95 -98 -100 -201 -203 -206 -252 -261 -283 -294 -301 -372 -379 -390 -412 -421 0
-1 -54 -57 -59 -95 -98 -100 -201 -203 -206 -252 -261 -282 -289 -300 -373 -384 -391 -412 -421 0
-1 -54 -57 -59 -95 -98 -100 -201 -203 -206 -252 -259 -266 -283 -300 -373 -390 -407 -414 -421 0
-1 -54 -57 -59 -95 -98 -100 -201 -203 -206 -248 -265 -287 -294 -301 -372 -379 -386 -408 -425 0
-1 -54 -57 -59 -95 -98 -100 -201 -203 -206 -248 -265 -282 -289 -296 -377 -384 -391 -408 -425 0
-1 -54 -57 -59 -95 -98 -100 -201 -203 -206 -248 -259 -266 -287 -296 -377 -386 -407 -414 -425 0
-1 -54 -57 -59 -95 -98 -100 -201 -203 -206 -248 -252 -266 -289 -294 -379 -384 -407 -421 -425 0
-1 -54 -57 -59 -95 -98 -100 -201 -203 -206 -248 -252 -259 -282 -301 -372 -391 -414 -421 -425 0
-1 -54 -57 -59 -95 -98 -100 -201 -203 -206 -247 -266 -289 -296 -300 -373 -377 -384 -407 -426 0
-1 -54 -57 -59 -95 -98 -100 -201 -203 -206 -247 -266 -283 -287 -294 -379 -386 -390 -407 -426 0
-1 -54 -57 -59 -95 -98 -100 -201 -203 -206 -247 -261 -265 -289 -294 -379 -384 -408 -412 -426 0
-1 -54 -57 -59 -95 -98 -100 -201 -203 -206 -247 -254 -265 -287 -296 -377 -386 -408 -419 -426 0
-1 -54 -57 -59 -95 -98 -100 -201 -203 -206 -247 -254 -261 -283 -300 -373 -390 -412 -419 -426 0
-1 -54 -56 -60 -95 -97 -101 -200 -204 -206 -254 -262 -264 -282 -301 -372 -391 -409 -411 -419 0
-1 -54 -56 -60 -95 -97 -101 -200 -204 -206 -254 -259 -284 -286 -301 -372 -387 -389 -414 -419 0
-1 -54 -56 -60 -95 -97 -101 -200 -204 -206 -254 -259 -282 -297 -299 -374 -376 -391 -414 -419 0
-1 -54 -56 -60 -95 -97 -101 -200 -204 -206 -251 -262 -284 -294 -301 -372 -379 -389 -411 -422 0
-1 -54 -56 -60 -95 -97 -101 -200 -204 -206 -251 -262 -282 -289 -299 -374 -384 -391 -411 -422 0
-1 -54 -56 -60 -95 -97 -101 -200 -204 -206 -251 -259 -266 -284 -299 -374 -389 -407 -414 -422 0
-1 -54 -56 -60 -95 -97 -101 -200 -204 -206 -249 -264 -286 -294 -301 -372 -379 -387 -409 -424 0
-1 -54 -56 -60 -95 -97 -101 -200 -204 -206 -249 -264 -282 -289 -297 -376 -384 -391 -409 -424 0
-1 -54 -56 -60 -95 -97 -101 -200 -204 -206 -249 -259 -266 -286 -297 -376 -387 -407 -414 -424 0
-1 -54 -56 -60 -95 -97 -101 -200 -204 -206 -249 -251 -266 -289 -294 -379 -384 -407 -422 -424 0
-1 -54 -56 -60 -95 -97 -101 -200 -204 -206 -249 -251 -259 -282 -301 -372 -391 -414 -422 -424 0
-1 -54 -56 -60 -95 -97 -101 -200 -204 -206 -247 -266 -289 -297 -299 -374 -376 -384 -407 -426 0
-1 -54 -56 -60 -95 -97 -101 -200 -204 -206 -247 -266 -284 -286 -294 -379 -387 -389 -407 -426 0
-1 -54 -56 -60 -95 -97 -101 -200 -204 -206 -247 -262 -264 -289 -294 -379 -384 -409 -411 -426 0
-1 -54 -56 -60 -95 -97 -101 -200 -204 -206 -247 -254 -264 -286 -297 -376 -387 -409 -419 -426 0
-1 -54 -56 -60 -95 -97 -101 -200 -204 -206 -247 -254 -262 -284 -299 -374 -389 -411 -419 -426 0
-1 -54 -55 -62 -95 -96 -103 -198 -205 -206 -252 -262 -264 -283 -300 -373 -390 -409 -411 -421 0
-1 -54 -55 -62 -95 -96 -103 -198 -205 -206 -252 -261 -284 -286 -300 -373 -387 -389 -412 -421 0
-1 -54 -55 -62 -95 -96 -103 -198 -205 -206 -252 -261 -283 -297 -299 -374 -376 -390 -412 -421 0
-1 -54 -55 -62 -95 -96 -103 -198 -205 -206 -251 -262 -284 -296 -300 -373 -377 -389 -411 -422 0
-1 -54 -55 -62 -95 -96 -103 -198 -205 -206 -251 -262 -283 -287 -299 -374 -386 -390 -411 -422 0
-1 -54 -55 -62 -95 -96 -103 -198 -205 -206 -251 -261 -265 -284 -299 -374 -389 -408 -412 -422 0
-1 -54 -55 -62 -95 -96 -103 -198 -205 -206 -249 -264 -286 -296 -300 -373 -377 -387 -409 -424 0
-1 -54 -55 -62 -95 -96 -103 -198 -205 -206 -249 -264 -283 -287 -297 -376 -386 -390 -409 -424 0
-1 -54 -55 -62 -95 -96 -103 -198 -205 -206 -249 -261 -265 -286 -297 -376 -387 -408 -412 -424 0
-1 -54 -55 -62 -95 -96 -103 -198 -205 -206 -249 -251 -265 -287 -296 -377 -386 -408 -422 -424 0
-1 -54 -55 -62 -95 -96 -103 -198 -205 -206 -249 -251 -261 -283 -300 -373 -390 -412 -422 -424 0
-1 -54 -55 -62 -95 -96 -103 -198 -205 -206 -248 -265 -287 -297 -299 -374 -376 -386 -408 -425 0
-1 -54 -55 -62 -95 -96 -103 -198 -205 -206 -248 -265 -284 -286 -296 -377 -387 -389 -408 -425 0
-1 -54 -55 -62 -95 -96 -103 -198 -205 -206 -248 -262 -264 -287 -296 -377 -386 -409 -411 -425 0
-1 -54 -55 -62 -95 -96 -103 -198 -205 -206 -248 -252 -264 -286 -297 -376 -387 -409 -421 -425 0
-1 -54 -55 -62 -95 -96 -103 -198 -205 -206 -248 -252 -262 -284 -299 -374 -389 -411 -421 -425 0
-1 -53 -58 -59 -94 -99 -100 -201 -202 -207 -255 -260 -265 -282 -301 -372 -391 -408 -413 -418 0
-1 -53 -58 -59 -94 -99 -100 -201 -202 -207 -255 -258 -283 -288 -301 -372 -385 -390 -415 -418 0
-1 -53 -58 -59 -94 -99 -100 -201 -202 -207 -255 -258 -282 -295 -300 -373 -378 -391 -415 -418 0
-1 -53 -58 -59 -94 -99 -100 -201 -202 -207 -253 -260 -283 -293 -301 -372 -380 -390 -413 -420 0
-1 -53 -58 -59 -94 -99 -100 -201 -202 -207 -253 -260 -282 -290 -300 -373 -383 -391 -413 -420 0
-1 -53 -58 -59 -94 -99 -100 -201 -202 -207 -253 -258 -266 -283 -300 -373 -390 -407 -415 -420 0
-1 -53 -58 -59 -94 -99 -100 -201 -202 -207 -248 -265 -288 -293 -301 -372 -380 -385 -408 -425 0
-1 -53 -58 -59 -94 -99 -100 -201 -202 -207 -248 -265 -282 -290 -295 -378 -383 -391 -408 -425 0
-1 -53 -58 -59 -94 -99 -100 -201 -202 -207 -248 -258 -266 -288 -295 -378 -385 -407 -415 -425 0
-1 -53 -58 -59 -94 -99 -100 -201 -202 -207 -248 -253 -266 -290 -293 -380 -383 -407 -420 -425 0
-1 -53 -58 -59 -94 -99 -100 -201 -202 -207 -248 -253 -258 -282 -301 -372 -391 -415 -420 -425 0
-1 -53 -58 -59 -94 -99 -100 -201 -202 -207 -247 -266 -290 -295 -300 -373 -378 -383 -407 -426 0
-1 -53 -58 -59 -94 -99 -100 -201 -202 -207 -247 -266 -283 -288 -293 -380 -385 -390 -407 -426 0
-1 -53 -58 -59 -94 -99 -100 -201 -202 -207 -247 -260 -265 -290 -293 -380 -383 -408 -413 -426 0
-1 -53 -58 -59 -94 -99 -100 -201 -202 -207 -247 -255 -265 -288 -295 -378 -385 -408 -418 -426 0
-1 -53 -58 -59 -94 -99 -100 -201 -202 -207 -247 -255 -260 -283 -300 -373 -390 -413 -418 -426 0
-1 -53 -56 -61 -94 -97 -102 -199 -204 -207 -255 -262 -263 -282 -301 -372 -391 -410 -411 -418 0
-1 -53 -56 -61 -94 -97 -102 -199 -204 -207 -255 -258 -285 -286 -301 -372 -387 -388 -415 -418 0
-1 -53 -56 -61 -94 -97 -102 -199 -204 -207 -255 -258 -282 -297 -298 -375 -376 -391 -415 -418 0
-1 -53 -56 -61 -94 -97 -102 -199 -204 -207 -251 -262 -285 -293 -301 -372 -380 -388 -411 -422 0
-1 -53 -56 -61 -94 -97 -102 -199 -204 -207 -251 -262 -282 -290 -298 -375 -383 -391 -411 -422 0
-1 -53 -56 -61 -94 -97 -102 -199 -204 -207 -251 -258 -266 -285 -298 -375 -388 -407 -415 -422 0
-1 -53 -56 -61 -94 -97 -102 -199 -204 -207 -250 -263 -286 -293 -301 -372 -380 -387 -410 -423 0
-1 -53 -56 -61 -94 -97 -102 -199 -204 -207 -250 -263 -282 -290 -297 -376 -383 -391 -410 -423 0
-1 -53 -56 -61 -94 -97 -102 -199 -204 -207 -250 -258 -266 -286 -297 -376 -387 -407 -415 -423 0
-1 -53 -56 -61 -94 -97 -102 -199 -204 -207 -250 -251 -266 -290 -293 -380 -383 -407 -422 -423 0
-1 -53 -56 -61 -94 -97 -102 -199 -204 -207 -250 -251 -258 -282 -301 -372 -391 -415 -422 -423 0
-1 -53 -56 -61 -94 -97 -102 -199 -204 -207 -247 -266 -290 -297 -298 -375 -376 -383 -407 -426 0
-1 -53 -56 -61 -94 -97 -102 -199 -204 -207 -247 -266 -285 -286 -293 -380 -387 -388 -407 -426 0
-1 -53 -56 -61 -94 -97 -102 -199 -204 -207 -247 -262 -263 -290 -293 -380 -383 -410 -411 -426 0
-1 -53 -56 -61 -94 -97 -102 -199 -204 -207 -247 -255 -263 -286 -297 -376 -387 -410 -418 -426 0
-1 -53 -56 -61 -94 -97 -102 -199 -204 -207 -247 -255 -262 -285 -298 -375 -388 -411 -418 -426 0
-1 -53 -55 -63 -94 -96 -104 -197 -205 -207 -253 -262 -263 -283 -300 -373 -390 -410 -411 -420 0
-1 -53 -55 -63 -94 -96 -104 -197 -205 -207 -253 -260 -285 -286 -300 -373 -387 -388 -413 -420 0
-1 -53 -55 -63 -94 -96 -104 -197 -205 -207 -253 -260 -283 -297 -298 -375 -376 -390 -413 -420 0
-1 -53 -55 -63 -94 -96 -104 -197 -205 -207 -251 -262 -285 -295 -300 -373 -378 -388 -411 -422 0
-1 -53 -55 -63 -94 -96 -104 -197 -205 -207 -251 -262 -283 -288 -298 -375 -385 -390 -411 -422 0
-1 -53 -55 -63 -94 -96 -104 -197 -205 -207 -251 -260 -265 -285 -298 -375 -388 -408 -413 -422 0
-1 -53 -55 -63 -94 -96 -104 -197 -205 -207 -250 -263 -286 -295 -300 -373 -378 -387 -410 -423 0
-1 -53 -55 -63 -94 -96 -104 -197 -205 -207 -250 -263 -283 -288 -297 -376 -385 -390 -410 -423 0
-1 -53 -55 -63 -94 -96 -104 -197 -205 -207 -250 -260 -265 -286 -297 -376 -387 -408 -413 -423 0
-1 -53 -55 -63 -94 -96 -104 -197 -205 -207 -250 -251 -265 -288 -295 -378 -385 -408 -422 -423 0
-1 -53 -55 -63 -94 -96 -104 -197 -205 -207 -250 -251 -260 -283 -300 -373 -390 -413 -422 -423 0
-1 -53 -55 -63 -94 -96 -104 -197 -205 -207 -248 -265 -288 -297 -298 -375 -376 -385 -408 -425 0
-1 -53 -55 -63 -94 -96 -104 -197 -205 -207 -248 -265 -285 -286 -295 -378 -387 -388 -408 -425 0
-1 -53 -55 -63 -94 -96 -104 -197 -205 -207 -248 -262 -263 -288 -295 -378 -385 -410 -411 -425 0
-1 -53 -55 -63 -94 -96 -104 -197 -205 -207 -248 -253 -263 -286 -297 -376 -387 -410 -420 -425 0
-1 -53 -55 -63 -94 -96 -104 -197 -205 -207 -248 -253 -262 -285 -298 -375 -388 -411 -420 -425 0
-1 -52 -58 -60 -93 -99 -101 -200 -202 -208 -256 -260 -264 -282 -301 -372 -391 -409 -413 -417 0
-1 -52 -58 -60 -93 -99 -101 -200 -202 -208 -256 -257 -284 -288 -301 -372 -385 -389 -416 -417 0
-1 -52 -58 -60 -93 -99 -101 -200 -202 -208 -256 -257 -282 -295 -299 -374 -378 -391 -416 -417 0
-1 -52 -58 -60 -93 -99 -101 -200 -202 -208 -253 -260 -284 -292 -301 -372 -381 -389 -413 -420 0
-1 -52 -58 -60 -93 -99 -101 -200 -202 -208 -253 -260 -282 -291 -299 -374 -382 -391 -413 -420 0
-1 -52 -58 -60 -93 -99 -101 -200 -202 -208 -253 -257 -266 -284 -299 -374 -389 -407 -416 -420 0
-1 -52 -58 -60 -93 -99 -101 -200 -202 -208 -249 -264 -288 -292 -301 -372 -381 -385 -409 -424 0
-1 -52 -58 -60 -93 -99 -101 -200 -202 -208 -249 -264 -282 -291 -295 -378 -382 -391 -409 -424 0
-1 -52 -58 -60 -93 -99 -101 -200 -202 -208 -249 -257 -266 -288 -295 -378 -385 -407 -416 -424 0
-1 -52 -58 -60 -93 -99 -101 -200 -202 -208 -249 -253 -266 -291 -292 -381 -382 -407 -420 -424 0
-1 -52 -58 -60 -93 -99 -101 -200 -202 -208 -249 -253 -257 -282 -301 -372 -391 -416 -420 -424 0
-1 -52 -58 -60 -93 -99 -101 -200 -202 -208 -247 -266 -291 -295 -299 -374 -378 -382 -407 -426 0
-1 -52 -58 -60 -93 -99 -101 -200 -202 -208 -247 -266 -284 -288 -292 -381 -385 -389 -407 -426 0
-1 -52 -58 -60 -93 -99 -101 -200 -202 -208 -247 -260 -264 -291 -292 -381 -382 -409 -413 -426 0
-1 -52 -58 -60 -93 -99 -101 -200 -202 -208 -247 -256 -264 -288 -295 -378 -385 -409 -417 -426 0
-1 -52 -58 -60 -93 -99 -101 -200 -202 -208 -247 -256 -260 -284 -299 -374 -389 -413 -417 -426 0
-1 -52 -57 -61 -93 -98 -102 -199 -203 -208 -256 -261 -263 -282 -301 -372 -391 -410 -412 -417 0
-1 -52 -57 -61 -93 -98 -102 -199 -203 -208 -256 -257 -285 -287 -301 -372 -386 -388 -416 -417 0
-1 -52 -57 -61 -93 -98 -102 -199 -203 -208 -256 -257 -282 -296 -298 -375 -377 -391 -416 -417 0
-1 -52 -57 -61 -93 -98 -102 -199 -203 -208 -252 -261 -285 -292 -301 -372 -381 -388 -412 -421 0
-1 -52 -57 -61 -93 -98 -102 -199 -203 -208 -252 -261 -282 -291 -298 -375 -382 -391 -412 -421 0
-1 -52 -57 -61 -93 -98 -102 -199 -203 -208 -252 -257 -266 -285 -298 -375 -388 -407 -416 -421 0
-1 -52 -57 -61 -93 -98 -102 -199 -203 -208 -250 -263 -287 -292 -301 -372 -381 -386 -410 -423 0
-1 -52 -57 -61 -93 -98 -102 -199 -203 -208 -250 -263 -282 -291 -296 -377 -382 -391 -410 -423 0
-1 -52 -57 -61 -93 -98 -102 -199 -203 -208 -250 -257 -266 -287 -296 -377 -386 -407 -416 -423 0
-1 -52 -57 -61 -93 -98 -102 -199 -203 -208 -250 -252 -266 -291 -292 -381 -382 -407 -421 -423 0
-1 -52 -57 -61 -93 -98 -102 -199 -203 -208 -250 -252 -257 -282 -301 -372 -391 -416 -421 -423 0
-1 -52 -57 -61 -93 -98 -102 -199 -203 -208 -247 -266 -291 -296 -298 -375 -377 -382 -407 -426 0
-1 -52 -57 -61 -93 -98 -102 -199 -203 -208 -247 -266 -285 -287 -292 -381 -386 -388 -407 -426 0
-1 -52 -57 -61 -93 -98 -102 -199 -203 -208 -247 -261 -263 -291 -292 -381 -382 -410 -412 -426 0
-1 -52 -57 -61 -93 -98 -102 -199 -203 -208 -247 -256 -263 -287 -296 -377 -386 -410 -417 -426 0
-1 -52 -57 -61 -93 -98 -102 -199 -203 -208 -247 -256 -261 -285 -298 -375 -388 -412 -417 -426 0
-1 -52 -55 -64 -93 -96 -105 -196 -205 -208 -253 -261 -263 -284 -299 -374 -389 -410 -412 -420 0
-1 -52 -55 -64 -93 -96 -105 -196 -205 -208 -253 -260 -285 -287 -299 -374 -386 -388 -413 -420 0
-1 -52 -55 -64 -93 -96 -105 -196 -205 -208 -253 -260 -284 -296 -298 -375 -377 -389 -413 -420 0
-1 -52 -55 -64 -93 -96 -105 -196 -205 -208 -252 -261 -285 -295 -299 -374 -378 -388 -412 -421 0
-1 -52 -55 -64 -93 -96 -105 -196 -205 -208 -252 -261 -284 -288 -298 -375 -385 -389 -412 -421 0
-1 -52 -55 -64 -93 -96 -105 -196 -205 -208 -252 -260 -264 -285 -298 -375 -388 -409 -413 -421 0
-1 -52 -55 -64 -93 -96 -105 -196 -205 -208 -250 -263 -287 -295 -299 -374 -378 -386 -410 -423 0
-1 -52 -55 -64 -93 -96 -105 -196 -205 -208 -250 -263 -284 -288 -296 -377 -385 -389 -410 -423 0
-1 -52 -55 -64 -93 -96 -105 -196 -205 -208 -250 -260 -264 -287 -296 -377 -386 -409 -413 -423 0
-1 -52 -55 -64 -93 -96 -105 -196 -205 -208 -250 -252 -264 -288 -295 -378 -385 -409 -421 -423 0
-1 -52 -55 -64 -93 -96 -105 -196 -205 -208 -250 -252 -260 -284 -299 -374 -389 -413 -421 -423 0
-1 -52 -55 -64 -93 -96 -105 -196 -205 -208 -249 -264 -288 -296 -298 -375 -377 -385 -409 -424 0
-1 -52 -55 -64 -93 -96 -105 -196 -205 -208 -249 -264 -285 -287 -295 -378 -386 -388 -409 -424 0
-1 -52 -55 -64 -93 -96 -105 -196 -205 -208 -249 -261 -263 -288 -295 -378 -385 -410 -412 -424 0
-1 -52 -55 -64 -93 -96 -105 -196 -205 -208 -249 -253 -263 -287 -296 -377 -386 -410 -420 -424 0
-1 -52 -55 -64 -93 -96 -105 -196 -205 -208 -249 -253 -261 -285 -298 -375 -388 -412 -420 -424 0
-1 -51 -58 -62 -92 -99 -103 -198 -202 -209 -256 -258 -264 -283 -300 -373 -390 -409 -415 -417 0
-1 -51 -58 -62 -92 -99 -103 -198 -202 -209 -256 -257 -284 -290 -300 -373 -383 -389 -416 -417 0
-1 -51 -58 -62 -92 -99 -103 -198 -202 -209 -256 -257 -283 -293 -299 -374 -380 -390 -416 -417 0
-1 -51 -58 -62 -92 -99 -103 -198 -202 -209 -255 -258 -284 -292 -300 -373 -381 -389 -415 -418 0
-1 -51 -58 -62 -92 -99 -103 -198 -202 -209 -255 -258 -283 -291 -299 -374 -382 -390 -415 -418 0
-1 -51 -58 -62 -92 -99 -103 -198 -202 -209 -255 -257 -265 -284 -299 -374 -389 -408 -416 -418 0
-1 -51 -58 -62 -92 -99 -103 -198 -202 -209 -249 -264 -290 -292 -300 -373 -381 -383 -409 -424 0
-1 -51 -58 -62 -92 -99 -103 -198 -202 -209 -249 -264 -283 -291 -293 -380 -382 -390 -409 -424 0
-1 -51 -58 -62 -92 -99 -103 -198 -202 -209 -249 -257 -265 -290 -293 -380 -383 -408 -416 -424 0
-1 -51 -58 -62 -92 -99 -103 -198 -202 -209 -249 -255 -265 -291 -292 -381 -382 -408 -418 -424 0
-1 -51 -58 -62 -92 -99 -103 -198 -202 -209 -249 -255 -257 -283 -300 -373 -390 -416 -418 -424 0
-1 -51 -58 -62 -92 -99 -103 -198 -202 -209 -248 -265 -291 -293 -299 -374 -380 -382 -408 -425 0
-1 -51 -58 -62 -92 -99 -103 -198 -202 -209 -248 -265 -284 -290 -292 -381 -383 -389 -408 -425 0
-1 -51 -58 -62 -92 -99 -103 -198 -202 -209 -248 -258 -264 -291 -292 -381 -382 -409 -415 -425 0
-1 -51 -58 -62 -92 -99 -103 -198 -202 -209 -248 -256 -264 -290 -293 -380 -383 -409 -417 -425 0
-1 -51 -58 -62 -92 -99 -103 -198 -202 -209 -248 -256 -258 -284 -299 -374 -389 -415 -417 -425 0
-1 -51 -57 -63 -92 -98 -104 -197 -203 -209 -256 -259 -263 -283 -300 -373 -390 -410 -414 -417 0
-1 -51 -57 -63 -92 -98 -104 -197 -203 -209 -256 -257 -285 -289 -300 -373 -384 -388 -416 -417 0
-1 -51 -57 -63 -92 -98 -104 -197 -203 -209 -256 -257 -283 -294 -298 -375 -379 -390 -416 -417 0
-1 -51 -57 -63 -92 -98 -104 -197 -203 -209 -254 -259 -285 -292 -300 -373 -381 -388 -414 -419 0
-1 -51 -57 -63 -92 -98 -104 -197 -203 -209 -254 -259 -283 -291 -298 -375 -382 -390 -414 -419 0
-1 -51 -57 -63 -92 -98 -104 -197 -203 -209 -254 -257 -265 -285 -298 -375 -388 -408 -416 -419 0
-1 -51 -57 -63 -92 -98 -104 -197 -203 -209 -250 -263 -289 -292 -300 -373 -381 -384 -410 -423 0
-1 -51 -57 -63 -92 -98 -104 -197 -203 -209 -250 -263 -283 -291 -294 -379 -382 -390 -410 -423 0
-1 -51 -57 -63 -92 -98 -104 -197 -203 -209 -250 -257 -265 -289 -294 -379 -384 -408 -416 -423 0
-1 -51 -57 -63 -92 -98 -104 -197 -203 -209 -250 -254 -265 -291 -292 -381 -382 -408 -419 -423 0
-1 -51 -57 -63 -92 -98 -104 -197 -203 -209 -250 -254 -257 -283 -300 -373 -390 -416 -419 -423 0
-1 -51 -57 -63 -92 -98 -104 -197 -203 -209 -248 -265 -291 -294 -298 -375 -379 -382 -408 -425 0
-1 -51 -57 -63 -92 -98 -104 -197 -203 -209 -248 -265 -285 -289 -292 -381 -384 -388 -408 -425 0
-1 -51 -57 -63 -92 -98 -104 -197 -203 -209 -248 -259 -263 -291 -292 -381 -382 -410 -414 -425 0
-1 -51 -57 -63 -92 -98 -104 -197 -203 -209 -248 -256 -263 -289 -294 -379 -384 -410 -417 -425 0
-1 -51 -57 -63 -92 -98 -104 -197 -203 -209 -248 -256 -259 -285 -298 -375 -388 -414 -417 -425 0
-1 -51 -56 -64 -92 -97 -105 -196 -204 -209 -255 -259 -263 -284 -299 -374 -389 -410 -414 -418 0
-1 -51 -56 -64 -92 -97 -105 -196 -204 -209 -255 -258 -285 -289 -299 -374 -384 -388 -415 -418 0
-1 -51 -56 -64 -92 -97 -105 -196 -204 -209 -255 -258 -284 -294 -298 -375 -379 -389 -415 -418 0
-1 -51 -56 -64 -92 -97 -105 -196 -204 -209 -254 -259 -285 -293 -299 -374 -380 -388 -414 -419 0
-1 -51 -56 -64 -92 -97 -105 -196 -204 -209 -254 -259 -284 -290 -298 -375 -383 -389 -414 -419 0
-1 -51 -56 -64 -92 -97 -105 -196 -204 -209 -254 -258 -264 -285 -298 -375 -388 -409 -415 -419 0
-1 -51 -56 -64 -92 -97 -105 -196 -204 -209 -250 -263 -289 -293 -299 -374 -380 -384 -410 -423 0
-1 -51 -56 -64 -92 -97 -105 -196 -204 -209 -250 -263 -284 -290 -294 -379 -383 -389 -410 -423 0
-1 -51 -56 -64 -92 -97 -105 -196 -204 -209 -250 -258 -264 -289 -294 -379 -384 -409 -415 -423 0
-1 -51 -56 -64 -92 -97 -105 -196 -204 -209 -250 -254 -264 -290 -293 -380 -383 -409 -419 -423 0
-1 -51 -56 -64 -92 -97 -105 -196 -204 -209 -250 -254 -258 -284 -299 -374 -389 -415 -419 -423 0
-1 -51 -56 -64 -92 -97 -105 -196 -204 -209 -249 -264 -290 -294 -298 -375 -379 -383 -409 -424 0
-1 -51 -56 -64 -92 -97 -105 -196 -204 -209 -249 -264 -285 -289 -293 -380 -384 -388 -409 -424 0
-1 -51 -56 -64 -92 -97 -105 -196 -204 -209 -249 -259 -263 -290 -293 -380 -383 -410 -414 -424 0
-1 -51 -56 -64 -92 -97 -105 -196 -204 -209 -249 -255 -263 -289 -294 -379 -384 -410 -418 -424 0
-1 -51 -56 -64 -92 -97 -105 -196 -204 -209 -249 -255 -259 -285 -298 -375 -388 -414 -418 -424 0
-1 -50 -61 -62 -91 -102 -103 -198 -199 -210 -256 -258 -261 -286 -297 -376 -387 -412 -415 -417 0
-1 -50 -61 -62 -91 -102 -103 -198 -199 -210 -256 -257 -287 -290 -297 -376 -383 -386 -416 -417 0
-1 -50 -61 -62 -91 -102 -103 -198 -199 -210 -256 -257 -286 -293 -296 -377 -380 -387 -416 -417 0
-1 -50 -61 -62 -91 -102 -103 -198 -199 -210 -255 -258 -287 -292 -297 -376 -381 -386 -415 -418 0
-1 -50 -61 -62 -91 -102 -103 -198 -199 -210 -255 -258 -286 -291 -296 -377 -382 -387 -415 -418 0
-1 -50 -61 -62 -91 -102 -103 -198 -199 -210 -255 -257 -262 -287 -296 -377 -386 -411 -416 -418 0
-1 -50 -61 -62 -91 -102 -103 -198 -199 -210 -252 -261 -290 -292 -297 -376 -381 -383 -412 -421 0
-1 -50 -61 -62 -91 -102 -103 -198 -199 -210 -252 -261 -286 -291 -293 -380 -382 -387 -412 -421 0
-1 -50 -61 -62 -91 -102 -103 -198 -199 -210 -252 -257 -262 -290 -293 -380 -383 -411 -416 -421 0
-1 -50 -61 -62 -91 -102 -103 -198 -199 -210 -252 -255 -262 -291 -292 -381 -382 -411 -418 -421 0
-1 -50 -61 -62 -91 -102 -103 -198 -199 -210 -252 -255 -257 -286 -297 -376 -387 -416 -418 -421 0
-1 -50 -61 -62 -91 -102 -103 -198 -199 -210 -251 -262 -291 -293 -296 -377 -380 -382 -411 -422 0
-1 -50 -61 -62 -91 -102 -103 -198 -199 -210 -251 -262 -287 -290 -292 -381 -383 -386 -411 -422 0
-1 -50 -61 -62 -91 -102 -103 -198 -199 -210 -251 -258 -261 -291 -292 -381 -382 -412 -415 -422 0
-1 -50 -61 -62 -91 -102 -103 -198 -199 -210 -251 -256 -261 -290 -293 -380 -383 -412 -417 -422 0
-1 -50 -61 -62 -91 -102 -103 -198 -199 -210 -251 -256 -258 -287 -296 -377 -386 -415 -417 -422 0
-1 -50 -60 -63 -91 -101 -104 -197 -200 -210 -256 -259 -260 -286 -297 -376 -387 -413 -414 -417 0
-1 -50 -60 -63 -91 -101 -104 -197 -200 -210 -256 -257 -288 -289 -297 -376 -384 -385 -416 -417 0
-1 -50 -60 -63 -91 -101 -104 -197 -200 -210 -256 -257 -286 -294 -295 -378 -379 -387 -416 -417 0
-1 -50 -60 -63 -91 -101 -104 -197 -200 -210 -254 -259 -288 -292 -297 -376 -381 -385 -414 -419 0
-1 -50 -60 -63 -91 -101 -104 -197 -200 -210 -254 -259 -286 -291 -295 -378 -382 -387 -414 -419 0
-1 -50 -60 -63 -91 -101 -104 -197 -200 -210 -254 -257 -262 -288 -295 -378 -385 -411 -416 -419 0
-1 -50 -60 -63 -91 -101 -104 -197 -200 -210 -253 -260 -289 -292 -297 -376 -381 -384 -413 -420 0
-1 -50 -60 -63 -91 -101 -104 -197 -200 -210 -253 -260 -286 -291 -294 -379 -382 -387 -413 -420 0
-1 -50 -60 -63 -91 -101 -104 -197 -200 -210 -253 -257 -262 -289 -294 -379 -384 -411 -416 -420 0
-1 -50 -60 -63 -91 -101 -104 -197 -200 -210 -253 -254 -262 -291 -292 -381 -382 -411 -419 -420 0
-1 -50 -60 -63 -91 -101 -104 -197 -200 -210 -253 -254 -257 -286 -297 -376 -387 -416 -419 -420 0
-1 -50 -60 -63 -91 -101 -104 -197 -200 -210 -251 -262 -291 -294 -295 -378 -379 -382 -411 -422 0
-1 -50 -60 -63 -91 -101 -104 -197 -200 -210 -251 -262 -288 -289 -292 -381 -384 -385 -411 -422 0
-1 -50 -60 -63 -91 -101 -104 -197 -200 -210 -251 -259 -260 -291 -292 -381 -382 -413 -414 -422 0
-1 -50 -60 -63 -91 -101 -104 -197 -200 -210 -251 -256 -260 -289 -294 -379 -384 -413 -417 -422 0
-1 -50 -60 -63 -91 -101 -104 -197 -200 -210 -251 -256 -259 -288 -295 -378 -385 -414 -417 -422 0
-1 -50 -59 -64 -91 -100 -105 -196 -201 -210 -255 -259 -260 -287 -296 -377 -386 -413 -414 -418 0
-1 -50 -59 -64 -91 -100 -105 -196 -201 -210 -255 -258 -288 -289 -296 -377 -384 -385 -415 -418 0
-1 -50 -59 -64 -91 -100 -105 -196 -201 -210 -255 -258 -287 -294 -295 -378 -379 -386 -415 -418 0
-1 -50 -59 -64 -91 -100 -105 -196 -201 -210 -254 -259 -288 -293 -296 -377 -380 -385 -414 -419 0
-1 -50 -59 -64 -91 -100 -105 -196 -201 -210 -254 -259 -287 -290 -295 -378 -383 -386 -414 -419 0
-1 -50 -59 -64 -91 -100 -105 -196 -201 -210 -254 -258 -261 -288 -295 -378 -385 -412 -415 -419 0
-1 -50 -59 -64 -91 -100 -105 -196 -201 -210 -253 -260 -289 -293 -296 -377 -380 -384 -413 -420 0
-1 -50 -59 -64 -91 -100 -105 -196 -201 -210 -253 -260 -287 -290 -294 -379 -383 -386 -413 -420 0
-1 -50 -59 -64 -91 -100 -105 -196 -201 -210 -253 -258 -261 -289 -294 -379 -384 -412 -415 -420 0
-1 -50 -59 -64 -91 -100 -105 -196 -201 -210 -253 -254 -261 -290 -293 -380 -383 -412 -419 -420 0
-1 -50 -59 -64 -91 -100 -105 -196 -201 -210 -253 -254 -258 -287 -296 -377 -386 -415 -419 -420 0
-1 -50 -59 -64 -91 -100 -105 -196 -201 -210 -252 -261 -290 -294 -295 -378 -379 -383 -412 -421 0
-1 -50 -59 -64 -91 -100 -105 -196 -201 -210 -252 -261 -288 -289 -293 -380 -384 -385 -412 -421 0
-1 -50 -59 -64 -91 -100 -105 -196 -201 -210 -252 -259 -260 -290 -293 -380 -383 -413 -414 -421 0
-1 -50 -59 -64 -91 -100 -105 -196 -201 -210 -252 -255 -260 -289 -294 -379 -384 -413 -418 -421 0
-1 -50 -59 -64 -91 -100 -105 -196 -201 -210 -252 -255 -259 -288 -295 -378 -385 -414 -418 -421 0
-1 -39 -42 -44 -110 -113 -115 -201 -203 -206 -254 -261 -265 -302 -321 -352 -371 -408 -412 -419 0
-1 -39 -42 -44 -110 -113 -115 -201 -203 -206 -254 -259 -303 -307 -321 -352 -366 -370 -414 -419 0
-1 -39 -42 -44 -110 -113 -115 -201 -203 -206 -254 -259 -302 -316 -320 -353 -357 -371 -414 -419 0
-1 -39 -42 -44 -110 -113 -115 -201 -203 -206 -252 -261 -303 -314 -321 -352 -359 -370 -412 -421 0
-1 -39 -42 -44 -110 -113 -115 -201 -203 -206 -252 -261 -302 -309 -320 -353 -364 -371 -412 -421 0
-1 -39 -42 -44 -110 -113 -115 -201 -203 -206 -252 -259 -266 -303 -320 -353 -370 -407 -414 -421 0
-1 -39 -42 -44 -110 -113 -115 -201 -203 -206 -248 -265 -307 -314 -321 -352 -359 -366 -408 -425 0
-1 -39 -42 -44 -110 -113 -115 -201 -203 -206 -248 -265 -302 -309 -316 -357 -364 -371 -408 -425 0
-1 -39 -42 -44 -110 -113 -115 -201 -203 -206 -248 -259 -266 -307 -316 -357 -366 -407 -414 -425 0
-1 -39 -42 -44 -110 -113 -115 -201 -203 -206 -248 -252 -266 -309 -314 -359 -364 -407 -421 -425 0
-1 -39 -42 -44 -110 -113 -115 -201 -203 -206 -248 -252 -259 -302 -321 -352 -371 -414 -421 -425 0
-1 -39 -42 -44 -110 -113 -115 -201 -203 -206 -247 -266 -309 -316 -320 -353 -357 -364 -407 -426 0
-1 -39 -42 -44 -110 -113 -115 -201 -203 -206 -247 -266 -303 -307 -314 -359 -366 -370 -407 -426 0
-1 -39 -42 -44 -110 -113 -115 -201 -203 -206 -247 -261 -265 -309 -314 -359 -364 -408 -412 -426 0
-1 -39 -42 -44 -110 -113 -115 -201 -203 -206 -247 -254 -265 -307 -316 -357 -366 -408 -419 -426 0
-1 -39 -42 -44 -110 -113 -115 -201 -203 -206 -247 -254 -261 -303 -320 -353 -370 -412 -419 -426 0
-1 -39 -41 -45 -110 -112 -116 -200 -204 -206 -254 -262 -264 -302 -321 -352 -371 -409 -411 -419 0
-1 -39 -41 -45 -110 -112 -116 -200 -204 -206 -254 -259 -304 -306 -321 -352 -367 -369 -414 -419 0
-1 -39 -41 -45 -110 -112 -116 -200 -204 -206 -254 -259 -302 -317 -319 -354 -356 -371 -414 -419 0
-1 -39 -41 -45 -110 -112 -116 -200 -204 -206 -251 -262 -304 -314 -321 -352 -359 -369 -411 -422 0
-1 -39 -41 -45 -110 -112 -116 -200 -204 -206 -251 -262 -302 -309 -319 -354 -364 -371 -411 -422 0
-1 -39 -41 -45 -110 -112 -116 -200 -204 -206 -251 -259 -266 -304 -319 -354 -369 -407 -414 -422 0
-1 -39 -41 -45 -110 -112 -116 -200 -204 -206 -249 -264 -306 -314 -321 -352 -359 -367 -409 -424 0
-1 -39 -41 -45 -110 -112 -116 -200 -204 -206 -249 -264 -302 -309 -317 -356 -364 -371 -409 -424 0
-1 -39 -41 -45 -110 -112 -116 -200 -204 -206 -249 -259 -266 -306 -317 -356 -367 -407 -414 -424 0
-1 -39 -41 -45 -110 -112 -116 -200 -204 -206 -249 -251 -266 -309 -314 -359 -364 -407 -422 -424 0
-1 -39 -41 -45 -110 -112 -116 -200 -204 -206 -249 -251 -259 -302 -321 -352 -371 -414 -422 -424 0
-1 -39 -41 -45 -110 -112 -116 -200 -204 -206 -247 -266 -309 -317 -319 -354 -356 -364 -407 -426 0
-1 -39 -41 -45 -110 -112 -116 -200 -204 -206 -247 -266 -304 -306 -314 -359 -367 -369 -407 -426 0
-1 -39 -41 -45 -110 -112 -116 -200 -204 -206 -247 -262 -264 -309 -314 -359 -364 -409 -411 -426 0
-1 -39 -41 -45 -110 -112 -116 -200 -204 -206 -247 -254 -264 -306 -317 -356 -367 -409 -419 -426 0
-1 -39 -41 -45 -110 -112 -116 -200 -204 -206 -247 -254 -262 -304 -319 -354 -369 -411 -419 -426 0
-1 -39 -40 -47 -110 -111 -118 -198 -205 -206 -252 -262 -264 -303 -320 -353 -370 -409 -411 -421 0
-1 -39 -40 -47 -110 -111 -118 -198 -205 -206 -252 -261 -304 -306 -320 -353 -367 -369 -412 -421 0
-1 -39 -40 -47 -110 -111 -118 -198 -205 -206 -252 -261 -303 -317 -319 -354 -356 -370 -412 -421 0
-1 -39 -40 -47 -110 -111 -118 -198 -205 -206 -251 -262 -304 -316 -320 -353 -357 -369 -411 -422 0
-1 -39 -40 -47 -110 -111 -118 -198 -205 -206 -251 -262 -303 -307 -319 -354 -366 -370 -411 -422 0
-1 -39 -40 -47 -110 -111 -118 -198 -205 -206 -251 -261 -265 -304 -319 -354 -369 -408 -412 -422 0
-1 -39 -40 -47 -110 -111 -118 -198 -205 -206 -249 -264 -306 -316 -320 -353 -357 -367 -409 -424 0
-1 -39 -40 -47 -110 -111 -118 -198 -205 -206 -249 -264 -303 -307 -317 -356 -366 -370 -409 -424 0
-1 -39 -40 -47 -110 -111 -118 -198 -205 -206 -249 -261 -265 -306 -317 -356 -367 -408 -412 -424 0
-1 -39 -40 -47 -110 -111 -118 -198 -205 -206 -249 -251 -265 -307 -316 -357 -366 -408 -422 -424 0
-1 -39 -40 -47 -110 -111 -118 -198 -205 -206 -249 -251 -261 -303 -320 -353 -370 -412 -422 -424 0
-1 -39 -40 -47 -110 -111 -118 -198 -205 -206 -248 -265 -307 -317 -319 -354 -356 -366 -408 -425 0
-1 -39 -40 -47 -110 -111 -118 -198 -205 -206 -248 -265 -304 -306 -316 -357 -367 -369 -408 -425 0
-1 -39 -40 -47 -110 -111 -118 -198 -205 -206 -248 -262 -264 -307 -316 -357 -366 -409 -411 -425 0
-1 -39 -40 -47 -110 -111 -118 -198 -205 -206 -248 -252 -264 -306 -317 -356 -367 -409 -421 -425 0
-1 -39 -40 -47 -110 -111 -118 -198 -205 -206 -248 -252 -262 -304 -319 -354 -369 -411 -421 -425 0
-1 -38 -43 -44 -109 -114 -115 -201 -202 -207 -255 -260 -265 -302 -321 -352 -371 -408 -413 -418 0
-1 -38 -43 -44 -109 -114 -115 -201 -202 -207 -255 -258 -303 -308 -321 -352 -365 -370 -415 -418 0
-1 -38 -43 -44 -109 -114 -115 -201 -202 -207 -255 -258 -302 -315 -320 -353 -358 -371 -415 -418 0
-1 -38 -43 -44 -109 -114 -115 -201 -202 -207 -253 -260 -303 -313 -321 -352 -360 -370 -413 -420 0
-1 -38 -43 -44 -109 -114 -115 -201 -202 -207 -253 -260 -302 -310 -320 -353 -363 -371 -413 -420 0
-1 -38 -43 -44 -109 -114 -115 -201 -202 -207 -253 -258 -266 -303 -320 -353 -370 -407 -415 -420 0
-1 -38 -43 -44 -109 -114 -115 -201 -202 -207 -248 -265 -308 -313 -321 -352 -360 -365 -408 -425 0
-1 -38 -43 -44 -109 -114 -115 -201 -202 -207 -248 -265 -302 -310 -315 -358 -363 -371 -408 -425 0
-1 -38 -43 -44 -109 -114 -115 -201 -202 -207 -248 -258 -266 -308 -315 -358 -365 -407 -415 -425 0
-1 -38 -43 -44 -109 -114 -115 -201 -202 -207 -248 -253 -266 -310 -313 -360 -363 -407 -420 -425 0
-1 -38 -43 -44 -109 -114 -115 -201 -202 -207 -248 -253 -258 -302 -321 -352 -371 -415 -420 -425 0
-1 -38 -43 -44 -109 -114 -115 -201 -202 -207 -247 -266 -310 -315 -320 -353 -358 -363 -407 -426 0
-1 -38 -43 -44 -109 -114 -115 -201 -202 -207 -247 -266 -303 -308 -313 -360 -365 -370 -407 -426 0
-1 -38 -43 -44 -109 -114 -115 -201 -202 -207 -247 -260 -265 -310 -313 -360 -363 -408 -413 -426 0
-1 -38 -43 -44 -109 -114 -115 -201 -202 -207 -247 -255 -265 -308 -315 -358 -365 -408 -418 -426 0
-1 -38 -43 -44 -109 -114 -115 -201 -202 -207 -247 -255 -260 -303 -320 -353 -370 -413 -418 -426 0
-1 -38 -41 -46 -109 -112 -117 -199 -204 -207 -255 -262 -263 -302 -321 -352 -371 -410 -411 -418 0
-1 -38 -41 -46 -109 -112 -117 -199 -204 -207 -255 -258 -305 -306 -321 -352 -367 -368 -415 -418 0
-1 -38 -41 -46 -109 -112 -117 -199 -204 -207 -255 -258 -302 -317 -318 -355 -356 -371 -415 -418 0
-1 -38 -41 -46 -109 -112 -117 -199 -204 -207 -251 -262 -305 -313 -321 -352 -360 -368 -411 -422 0
-1 -38 -41 -46 -109 -112 -117 -199 -204 -207 -251 -262 -302 -310 -318 -355 -363 -371 -411 -422 0
-1 -38 -41 -46 -109 -112 -117 -199 -204 -207 -251 -258 -266 -305 -318 -355 -368 -407 -415 -422 0
-1 -38 -41 -46 -109 -112 -117 -199 -204 -207 -250 -263 -306 -313 -321 -352 -360 -367 -410 -423 0
-1 -38 -41 -46 -109 -112 -117 -199 -204 -207 -250 -263 -302 -310 -317 -356 -363 -371 -410 -423 0
-1 -38 -41 -46 -109 -112 -117 -199 -204 -207 -250 -258 -266 -306 -317 -356 -367 -407 -415 -423 0
-1 -38 -41 -46 -109 -112 -117 -199 -204 -207 -250 -251 -266 -310 -313 -360 -363 -407 -422 -423 0
-1 -38 -41 -46 -109 -112 -117 -199 -204 -207 -250 -251 -258 -302 -321 -352 -371 -415 -422 -423 0
-1 -38 -41 -46 -109 -112 -117 -199 -204 -207 -247 -266 -310 -317 -318 -355 -356 -363 -407 -426 0
-1 -38 -41 -46 -109 -112 -117 -199 -204 -207 -247 -266 -305 -306 -313 -360 -367 -368 -407 -426 0
-1 -38 -41 -46 -109 -112 -117 -199 -204 -207 -247 -262 -263 -310 -313 -360 -363 -410 -411 -426 0
-1 -38 -41 -46 -109 -112 -117 -199 -204 -207 -247 -255 -263 -306 -317 -356 -367 -410 -418 -426 0
-1 -38 -41 -46 -109 -112 -117 -199 -204 -207 -247 -255 -262 -305 -318 -355 -368 -411 -418 -426 0
-1 -38 -40 -48 -109 -111 -119 -197 -205 -207 -253 -262 -263 -303 -320 -353 -370 -410 -411 -420 0
-1 -38 -40 -48 -109 -111 -119 -197 -205 -207 -253 -260 -305 -306 -320 -353 -367 -368 -413 -420 0
-1 -38 -40 -48 -109 -111 -119 -197 -205 -207 -253 -260 -303 -317 -318 -355 -356 -370 -413 -420 0
-1 -38 -40 -48 -109 -111 -119 -197 -205 -207 -251 -262 -305 -315 -320 -353 -358 -368 -411 -422 0
-1 -38 -40 -48 -109 -111 -119 -197 -205 -207 -251 -262 -303 -308 -318 -355 -365 -370 -411 -422 0
-1 -38 -40 -48 -109 -111 -119 -197 -205 -207 -251 -260 -265 -305 -318 -355 -368 -408 -413 -422 0
-1 -38 -40 -48 -109 -111 -119 -197 -205 -207 -250 -263 -306 -315 -320 -353 -358 -367 -410 -423 0
-1 -38 -40 -48 -109 -111 -119 -197 -205 -207 -250 -263 -303 -308 -317 -356 -365 -370 -410 -423 0
-1 -38 -40 -48 -109 -111 -119 -197 -205 -207 -250 -260 -265 -306 -317 -356 -367 -408 -413 -423 0
-1 -38 -40 -48 -109 -111 -119 -197 -205 -207 -250 -251 -265 -308 -315 -358 -365 -408 -422 -423 0
-1 -38 -40 -48 -109 -111 -119 -197 -205 -207 -250 -251 -260 -303 -320 -353 -370 -413 -422 -423 0
-1 -38 -40 -48 -109 -111 -119 -197 -205 -207 -248 -265 -308 -317 -318 -355 -356 -365 -408 -425 0
-1 -38 -40 -48 -109 -111 -119 -197 -205 -207 -248 -265 -305 -306 -315 -358 -367 -368 -408 -425 0
-1 -38 -40 -48 -109 -111 -119 -197 -205 -207 -248 -262 -263 -308 -315 -358 -365 -410 -411 -425 0
-1 -38 -40 -48 -109 -111 -119 -197 -205 -207 -248 -253 -263 -306 -317 -356 -367 -410 -420 -425 0
-1 -38 -40 -48 -109 -111 -119 -197 -205 -207 -248 -253 -262 -305 -318 -355 -368 -411 -420 -425 0
-1 -37 -43 -45 -108 -114 -116 -200 -202 -208 -256 -260 -264 -302 -321 -352 -371 -409 -413 -417 0
-1 -37 -43 -45 -108 -114 -116 -200 -202 -208 -256 -257 -304 -308 -321 -352 -365 -369 -416 -417 0
-1 -37 -43 -45 -108 -114 -116 -200 -202 -208 -256 -257 -302 -315 -319 -354 -358 -371 -416 -417 0
-1 -37 -43 -45 -108 -114 -116 -200 -202 -208 -253 -260 -304 -312 -321 -352 -361 -369 -413 -420 0
-1 -37 -43 -45 -108 -114 -116 -200 -202 -208 -253 -260 -302 -311 -319 -354 -362 -371 -413 -420 0
-1 -37 -43 -45 -108 -114 -116 -200 -202 -208 -253 -257 -266 -304 -319 -354 -369 -407 -416 -420 0
-1 -37 -43 -45 -108 -114 -116 -200 -202 -208 -249 -264 -308 -312 -321 -352 -361 -365 -409 -424 0
-1 -37 -43 -45 -108 -114 -116 -200 -202 -208 -249 -264 -302 -311 -315 -358 -362 -371 -409 -424 0
-1 -37 -43 -45 -108 -114 -116 -200 -202 -208 -249 -257 -266 -308 -315 -358 -365 -407 -416 -424 0
-1 -37 -43 -45 -108 -114 -116 -200 -202 -208 -249 -253 -266 -311 -312 -361 -362 -407 -420 -424 0
-1 -37 -43 -45 -108 -114 -116 -200 -202 -208 -249 -253 -257 -302 -321 -352 -371 -416 -420 -424 0
-1 -37 -43 -45 -108 -114 -116 -200 -202 -208 -247 -266 -311 -315 -319 -354 -358 -362 -407 -426 0
-1 -37 -43 -45 -108 -114 -116 -200 -202 -208 -247 -266 -304 -308 -312 -361 -365 -369 -407 -426 0
-1 -37 -43 -45 -108 -114 -116 -200 -202 -208 -247 -260 -264 -311 -312 -361 -362 -409 -413 -426 0
-1 -37 -43 -45 -108 -114 -116 -200 -202 -208 -247 -256 -264 -308 -315 -358 -365 -409 -417 -426 0
-1 -37 -43 -45 -108 -114 -116 -200 -202 -208 -247 -256 -260 -304 -319 -354 -369 -413 -417 -426 0
-1 -37 -42 -46 -108 -113 -117 -199 -203 -208 -256 -261 -263 -302 -321 -352 -371 -410 -412 -417 0
-1 -37 -42 -46 -108 -113 -117 -199 -203 -208 -256 -257 -305 -307 -321 -352 -366 -368 -416 -417 0
-1 -37 -42 -46 -108 -113 -117 -199 -203 -208 -256 -257 -302 -316 -318 -355 -357 -371 -416 -417 0
-1 -37 -42 -46 -108 -113 -117 -199 -203 -208 -252 -261 -305 -312 -321 -352 -361 -368 -412 -421 0
-1 -37 -42 -46 -108 -113 -117 -199 -203 -208 -252 -261 -302 -311 -318 -355 -362 -371 -412 -421 0
-1 -37 -42 -46 -108 -113 -117 -199 -203 -208 -252 -257 -266 -305 -318 -355 -368 -407 -416 -421 0
-1 -37 -42 -46 -108 -113 -117 -199 -203 -208 -250 -263 -307 -312 -321 -352 -361 -366 -410 -423 0
-1 -37 -42 -46 -108 -113 -117 -199 -203 -208 -250 -263 -302 -311 -316 -357 -362 -371 -410 -423 0
-1 -37 -42 -46 -108 -113 -117 -199 -203 -208 -250 -257 -266 -307 -316 -357 -366 -407 -416 -423 0
-1 -37 -42 -46 -108 -113 -117 -199 -203 -208 -250 -252 -266 -311 -312 -361 -362 -407 -421 -423 0
-1 -37 -42 -46 -108 -113 -117 -199 -203 -208 -250 -252 -257 -302 -321 -352 -371 -416 -421 -423 0
-1 -37 -42 -46 -108 -113 -117 -199 -203 -208 -247 -266 -311 -316 -318 -355 -357 -362 -407 -426 0
-1 -37 -42 -46 -108 -113 -117 -199 -203 -208 -247 -266 -305 -307 -312 -361 -366 -368 -407 -426 0
-1 -37 -42 -46 -108 -113 -117 -199 -203 -208 -247 -261 -263 -311 -312 -361 -362 -410 -412 -426 0
-1 -37 -42 -46 -108 -113 -117 -199 -203 -208 -247 -256 -263 -307 -316 -357 -366 -410 -417 -426 0
-1 -37 -42 -46 -108 -113 -117 -199 -203 -208 -247 -256 -261 -305 -318 -355 -368 -412 -417 -426 0
-1 -37 -40 -49 -108 -111 -120 -196 -205 -208 -253 -261 -263 -304 -319 -354 -369 -410 -412 -420 0
-1 -37 -40 -49 -108 -111 -120 -196 -205 -208 -253 -260 -305 -307 -319 -354 -366 -368 -413 -420 0
-1 -37 -40 -49 -108 -111 -120 -196 -205 -208 -253 -260 -304 -316 -318 -355 -357 -369 -413 -420 0
-1 -37 -40 -49 -108 -111 -120 -196 -205 -208 -252 -261 -305 -315 -319 -354 -358 -368 -412 -421 0
-1 -37 -40 -49 -108 -111 -120 -196 -205 -208 -252 -261 -304 -308 -318 -355 -365 -369 -412 -421 0
-1 -37 -40 -49 -108 -111 -120 -196 -205 -208 -252 -260 -264 -305 -318 -355 -368 -409 -413 -421 0
-1 -37 -40 -49 -108 -111 -120 -196 -205 -208 -250 -263 -307 -315 -319 -354 -358 -366 -410 -423 0
-1 -37 -40 -49 -108 -111 -120 -196 -205 -208 -250 -263 -304 -308 -316 -357 -365 -369 -410 -423 0
-1 -37 -40 -49 -108 -111 -120 -196 -205 -208 -250 -260 -264 -307 -316 -357 -366 -409 -413 -423 0
-1 -37 -40 -49 -108 -111 -120 -196 -205 -208 -250 -252 -264 -308 -315 -358 -365 -409 -421 -423 0
-1 -37 -40 -49 -108 -111 -120 -196 -205 -208 -250 -252 -260 -304 -319 -354 -369 -413 -421 -423 0
-1 -37 -40 -49 -108 -111 -120 -196 -205 -208 -249 -264 -308 -316 -318 -355 -357 -365 -409 -424 0
-1 -37 -40 -49 -108 -111 -120 -196 -205 -208 -249 -264 -305 -307 -315 -358 -366 -368 -409 -424 0
-1 -37 -40 -49 -108 -111 -120 -196 -205 -208 -249 -261 -263 -308 -315 -358 -365 -410 -412 -424 0
-1 -37 -40 -49 -108 -111 -120 -196 -205 -208 -249 -253 -263 -307 -316 -357 -366 -410 -420 -424 0
-1 -37 -40 -49 -108 -111 -120 -196 -205 -208 -249 -253 -261 -305 -318 -355 -368 -412 -420 -424 0
-1 -36 -43 -47 -107 -114 -118 -198 -202 -209 -256 -258 -264 -303 -320 -353 -370 -409 -415 -417 0
-1 -36 -43 -47 -107 -114 -118 -198 -202 -209 -256 -257 -304 -310 -320 -353 -363 -369 -416 -417 0
-1 -36 -43 -47 -107 -114 -118 -198 -202 -209 -256 -257 -303 -313 -319 -354 -360 -370 -416 -417 0
-1 -36 -43 -47 -107 -114 -118 -198 -202 -209 -255 -258 -304 -312 -320 -353 -361 -369 -415 -418 0
-1 -36 -43 -47 -107 -114 -118 -198 -202 -209 -255 -258 -303 -311 -319 -354 -362 -370 -415 -418 0
-1 -36 -43 -47 -107 -114 -118 -198 -202 -209 -255 -257 -265 -304 -319 -354 -369 -408 -416 -418 0
-1 -36 -43 -47 -107 -114 -118 -198 -202 -209 -249 -264 -310 -312 -320 -353 -361 -363 -409 -424 0
-1 -36 -43 -47 -107 -114 -118 -198 -202 -209 -249 -264 -303 -311 -313 -360 -362 -370 -409 -424 0
-1 -36 -43 -47 -107 -114 -118 -198 -202 -209 -249 -257 -265 -310 -313 -360 -363 -408 -416 -424 0
-1 -36 -43 -47 -107 -114 -118 -198 -202 -209 -249 -255 -265 -311 -312 -361 -362 -408 -418 -424 0
-1 -36 -43 -47 -107 -114 -118 -198 -202 -209 -249 -255 -257 -303 -320 -353 -370 -416 -418 -424 0
-1 -36 -43 -47 -107 -114 -118 -198 -202 -209 -248 -265 -311 -313 -319 -354 -360 -362 -408 -425 0
-1 -36 -43 -47 -107 -114 -118 -198 -202 -209 -248 -265 -304 -310 -312 -361 -363 -369 -408 -425 0
-1 -36 -43 -47 -107 -114 -118 -198 -202 -209 -248 -258 -264 -311 -312 -361 -362 -409 -415 -425 0
-1 -36 -43 -47 -107 -114 -118 -198 -202 -209 -248 -256 -264 -310 -313 -360 -363 -409 -417 -425 0
-1 -36 -43 -47 -107 -114 -118 -198 -202 -209 -248 -256 -258 -304 -319 -354 -369 -415 -417 -425 0
-1 -36 -42 -48 -107 -113 -119 -197 -203 -209 -256 -259 -263 -303 -320 -353 -370 -410 -414 -417 0
-1 -36 -42 -48 -107 -113 -119 -197 -203 -209 -256 -257 -305 -309 -320 -353 -364 -368 -416 -417 0
-1 -36 -42 -48 -107 -113 -119 -197 -203 -209 -256 -257 -303 -314 -318 -355 -359 -370 -416 -417 0
-1 -36 -42 -48 -107 -113 -119 -197 -203 -209 -254 -259 -305 -312 -320 -353 -361 -368 -414 -419 0
-1 -36 -42 -48 -107 -113 -119 -197 -203 -209 -254 -259 -303 -311 -318 -355 -362 -370 -414 -419 0
-1 -36 -42 -48 -107 -113 -119 -197 -203 -209 -254 -257 -265 -305 -318 -355 -368 -408 -416 -419 0
-1 -36 -42 -48 -107 -113 -119 -197 -203 -209 -250 -263 -309 -312 -320 -353 -361 -364 -410 -423 0
-1 -36 -42 -48 -107 -113 -119 -197 -203 -209 -250 -263 -303 -311 -314 -359 -362 -370 -410 -423 0
-1 -36 -42 -48 -107 -113 -119 -197 -203 -209 -250 -257 -265 -309 -314 -359 -364 -408 -416 -423 0
-1 -36 -42 -48 -107 -113 -119 -197 -203 -209 -250 -254 -265 -311 -312 -361 -362 -408 -419 -423 0
-1 -36 -42 -48 -107 -113 -119 -197 -203 -209 -250 -254 -257 -303 -320 -353 -370 -416 -419 -423 0
-1 -36 -42 -48 -107 -113 -119 -197 -203 -209 -248 -265 -311 -314 -318 -355 -359 -362 -408 -425 0
-1 -36 -42 -48 -107 -113 -119 -197 -203 -209 -248 -265 -305 -309 -312 -361 -364 -368 -408 -425 0
-1 -36 -42 -48 -107 -113 -119 -197 -203 -209 -248 -259 -263 -311 -312 -361 -362 -410 -414 -425 0
-1 -36 -42 -48 -107 -113 -119 -197 -203 -209 -248 -256 -263 -309 -314 -359 -364 -410 -417 -425 0
-1 -36 -42 -48 -107 -113 -119 -197 -203 -209 -248 -256 -259 -305 -318 -355 -368 -414 -417 -425 0
-1 -36 -41 -49 -107 -112 -120 -196 -204 -209 -255 -259 -263 -304 -319 -354 -369 -410 -414 -418 0
-1 -36 -41 -49 -107 -112 -120 -196 -204 -209 -255 -258 -305 -309 -319 -354 -364 -368 -415 -418 0
-1 -36 -41 -49 -107 -112 -120 -196 -204 -209 -255 -258 -304 -314 -318 -355 -359 -369 -415 -418 0
-1 -36 -41 -49 -107 -112 -120 -196 -204 -209 -254 -259 -305 -313 -319 -354 -360 -368 -414 -419 0
-1 -36 -41 -49 -107 -112 -120 -196 -204 -209 -254 -259 -304 -310 -318 -355 -363 -369 -414 -419 0
-1 -36 -41 -49 -107 -112 -120 -196 -204 -209 -254 -258 -264 -305 -318 -355 -368 -409 -415 -419 0
-1 -36 -41 -49 -107 -112 -120 -196 -204 -209 -250 -263 -309 -313 -319 -354 -360 -364 -410 -423 0
-1 -36 -41 -49 -107 -112 -120 -196 -204 -209 -250 -263 -304 -310 -314 -359 -363 -369 -410 -423 0
-1 -36 -41 -49 -107 -112 -120 -196 -204 -209 -250 -258 -264 -309 -314 -359 -364 -409 -415 -423 0
-1 -36 -41 -49 -107 -112 -120 -196 -204 -209 -250 -254 -264 -310 -313 -360 -363 -409 -419 -423 0
-1 -36 -41 -49 -107 -112 -120 -196 -204 -209 -250 -254 -258 -304 -319 -354 -369 -415 -419 -423 0
-1 -36 -41 -49 -107 -112 -120 -196 -204 -209 -249 -264 -310 -314 -318 -355 -359 -363 -409 -424 0
-1 -36 -41 -49 -107 -112 -120 -196 -204 -209 -249 -264 -305 -309 -313 -360 -364 -368 -409 -424 0
-1 -36 -41 -49 -107 -112 -120 -196 -204 -209 -249 -259 -263 -310 -313 -360 -363 -410 -414 -424 0
-1 -36 -41 -49 -107 -112 -120 -196 -204 -209 -249 -255 -263 -309 -314 -359 -364 -410 -418 -424 0
-1 -36 -41 -49 -107 -112 -120 -196 -204 -209 -249 -255 -259 -305 -318 -355 -368 -414 -418 -424 0
-1 -35 -46 -47 -106 -117 -118 -198 -199 -210 -256 -258 -261 -306 -317 -356 -367 -412 -415 -417 0
-1 -35 -46 -47 -106 -117 -118 -198 -199 -210 -256 -257 -307 -310 -317 -356 -363 -366 -416 -417 0
-1 -35 -46 -47 -106 -117 -118 -198 -199 -210 -256 -257 -306 -313 -316 -357 -360 -367 -416 -417 0
-1 -35 -46 -47 -106 -117 -118 -198 -199 -210 -255 -258 -307 -312 -317 -356 -361 -366 -415 -418 0
-1 -35 -46 -47 -106 -117 -118 -198 -199 -210 -255 -258 -306 -311 -316 -357 -362 -367 -415 -418 0
-1 -35 -46 -47 -106 -117 -118 -198 -199 -210 -255 -257 -262 -307 -316 -357 -366 -411 -416 -418 0
-1 -35 -46 -47 -106 -117 -118 -198 -199 -210 -252 -261 -310 -312 -317 -356 -361 -363 -412 -421 0
-1 -35 -46 -47 -106 -117 -118 -198 -199 -210 -252 -261 -306 -311 -313 -360 -362 -367 -412 -421 0
-1 -35 -46 -47 -106 -117 -118 -198 -199 -210 -252 -257 -262 -310 -313 -360 -363 -411 -416 -421 0
-1 -35 -46 -47 -106 -117 -118 -198 -199 -210 -252 -255 -262 -311 -312 -361 -362 -411 -418 -421 0
-1 -35 -46 -47 -106 -117 -118 -198 -199 -210 -252 -255 -257 -306 -317 -356 -367 -416 -418 -421 0
-1 -35 -46 -47 -106 -117 -118 -198 -199 -210 -251 -262 -311 -313 -316 -357 -360 -362 -411 -422 0
-1 -35 -46 -47 -106 -117 -118 -198 -199 -210 -251 -262 -307 -310 -312 -361 -363 -366 -411 -422 0
-1 -35 -46 -47 -106 -117 -118 -198 -199 -210 -251 -258 -261 -311 -312 -361 -362 -412 -415 -422 0
-1 -35 -46 -47 -106 -117 -118 -198 -199 -210 -251 -256 -261 -310 -313 -360 -363 -412 -417 -422 0
-1 -35 -46 -47 -106 -117 -118 -198 -199 -210 -251 -256 -258 -307 -316 -357 -366 -415 -417 -422 0
-1 -35 -45 -48 -106 -116 -119 -197 -200 -210 -256 -259 -260 -306 -317 -356 -367 -413 -414 -417 0
-1 -35 -45 -48 -106 -116 -119 -197 -200 -210 -256 -257 -308 -309 -317 -356 -364 -365 -416 -417 0
-1 -35 -45 -48 -106 -116 -119 -197 -200 -210 -256 -257 -306 -314 -315 -358 -359 -367 -416 -417 0
-1 -35 -45 -48 -106 -116 -119 -197 -200 -210 -254 -259 -308 -312 -317 -356 -361 -365 -414 -419 0
-1 -35 -45 -48 -106 -116 -119 -197 -200 -210 -254 -259 -306 -311 -315 -358 -362 -367 -414 -419 0
-1 -35 -45 -48 -106 -116 -119 -197 -200 -210 -254 -257 -262 -308 -315 -358 -365 -411 -416 -419 0
-1 -35 -45 -48 -106 -116 -119 -197 -200 -210 -253 -260 -309 -312 -317 -356 -361 -364 -413 -420 0
-1 -35 -45 -48 -106 -116 -119 -197 -200 -210 -253 -260 -306 -311 -314 -359 -362 -367 -413 -420 0
-1 -35 -45 -48 -106 -116 -119 -197 -200 -210 -253 -257 -262 -309 -314 -359 -364 -411 -416 -420 0
-1 -35 -45 -48 -106 -116 -119 -197 -200 -210 -253 -254 -262 -311 -312 -361 -362 -411 -419 -420 0
-1 -35 -45 -48 -106 -116 -119 -197 -200 -210 -253 -254 -257 -306 -317 -356 -367 -416 -419 -420 0
-1 -35 -45 -48 -106 -116 -119 -197 -200 -210 -251 -262 -311 -314 -315 -358 -359 -362 -411 -422 0
-1 -35 -45 -48 -106 -116 -119 -197 -200 -210 -251 -262 -308 -309 -312 -361 -364 -365 -411 -422 0
-1 -35 -45 -48 -106 -116 -119 -197 -200 -210 -251 -259 -260 -311 -312 -361 -362 -413 -414 -422 0
-1 -35 -45 -48 -106 -116 -119 -197 -200 -210 -251 -256 -260 -309 -314 -359 -364 -413 -417 -422 0
-1 -35 -45 -48 -106 -116 -119 -197 -200 -210 -251 -256 -259 -308 -315 -358 -365 -414 -417 -422 0
-1 -35 -44 -49 -106 -115 -120 -196 -201 -210 -255 -259 -260 -307 -316 -357 -366 -413 -414 -418 0
-1 -35 -44 -49 -106 -115 -120 -196 -201 -210 -255 -258 -308 -309 -316 -357 -364 -365 -415 -418 0
-1 -35 -44 -49 -106 -115 -120 -196 -201 -210 -255 -258 -307 -314 -315 -358 -359 -366 -415 -418 0
-1 -35 -44 -49 -106 -115 -120 -196 -201 -210 -254 -259 -308 -313 -316 -357 -360 -365 -414 -419 0
-1 -35 -44 -49 -106 -115 -120 -196 -201 -210 -254 -259 -307 -310 -315 -358 -363 -366 -414 -419 0
-1 -35 -44 -49 -106 -115 -120 -196 -201 -210 -254 -258 -261 -308 -315 -358 -365 -412 -415 -419 0
-1 -35 -44 -49 -106 -115 -120 -196 -201 -210 -253 -260 -309 -313 -316 -357 -360 -364 -413 -420 0
-1 -35 -44 -49 -106 -115 -120 -196 -201 -210 -253 -260 -307 -310 -314 -359 -363 -366 -413 -420 0
-1 -35 -44 -49 -106 -115 -120 -196 -201 -210 -253 -258 -261 -309 -314 -359 -364 -412 -415 -420 0
-1 -35 -44 -49 -106 -115 -120 -196 -201 -210 -253 -254 -261 -310 -313 -360 -363 -412 -419 -420 0
-1 -35 -44 -49 -106 -115 -120 -196 -201 -210 -253 -254 -258 -307 -316 -357 -366 -415 -419 -420 0
-1 -35 -44 -49 -106 -115 -120 -196 -201 -210 -252 -261 -310 -314 -315 -358 -359 -363 -412 -421 0
-1 -35 -44 -49 -106 -115 -120 -196 -201 -210 -252 -261 -308 -309 -313 -360 -364 -365 -412 -421 0
-1 -35 -44 -49 -106 -115 -120 -196 -201 -210 -252 -259 -260 -310 -313 -360 -363 -413 -414 -421 0
-1 -35 -44 -49 -106 -115 -120 -196 -201 -210 -252 -255 -260 -309 -314 -359 -364 -413 -418 -421 0
-1 -35 -44 -49 -106 -115 -120 -196 -201 -210 -252 -255 -259 -308 -315 -358 -365 -414 -418 -421 0
-1 -18 -21 -23 -145 -148 -150 -201 -203 -206 -289 -296 -300 -302 -321 -352 -371 -373 -377 -384 0
-1 -18 -21 -23 -145 -148 -150 -201 -203 -206 -289 -294 -303 -307 -321 -352 -366 -370 -379 -384 0
-1 -18 -21 -23 -145 -148 -150 -201 -203 -206 -289 -294 -302 -316 -320 -353 -357 -371 -379 -384 0
-1 -18 -21 -23 -145 -148 -150 -201 -203 -206 -287 -296 -303 -314 -321 -352 -359 -370 -377 -386 0
-1 -18 -21 -23 -145 -148 -150 -201 -203 -206 -287 -296 -302 -309 -320 -353 -364 -371 -377 -386 0
-1 -18 -21 -23 -145 -148 -150 -201 -203 -206 -287 -294 -301 -303 -320 -353 -370 -372 -379 -386 0
-1 -18 -21 -23 -145 -148 -150 -201 -203 -206 -283 -300 -307 -314 -321 -352 -359 -366 -373 -390 0
-1 -18 -21 -23 -145 -148 -150 -201 -203 -206 -283 -300 -302 -309 -316 -357 -364 -371 -373 -390 0
-1 -18 -21 -23 -145 -148 -150 -201 -203 -206 -283 -294 -301 -307 -316 -357 -366 -372 -379 -390 0
-1 -18 -21 -23 -145 -148 -150 -201 -203 -206 -283 -287 -301 -309 -314 -359 -364 -372 -386 -390 0
-1 -18 -21 -23 -145 -148 -150 -201 -203 -206 -283 -287 -294 -302 -321 -352 -371 -379 -386 -390 0
-1 -18 -21 -23 -145 -148 -150 -201 -203 -206 -282 -301 -309 -316 -320 -353 -357 -364 -372 -391 0
-1 -18 -21 -23 -145 -148 -150 -201 -203 -206 -282 -301 -303 -307 -314 -359 -366 -370 -372 -391 0
-1 -18 -21 -23 -145 -148 -150 -201 -203 -206 -282 -296 -300 -309 -314 -359 -364 -373 -377 -391 0
-1 -18 -21 -23 -145 -148 -150 -201 -203 -206 -282 -289 -300 -307 -316 -357 -366 -373 -384 -391 0
-1 -18 -21 -23 -145 -148 -150 -201 -203 -206 -282 -289 -296 -303 -320 -353 -370 -377 -384 -391 0
-1 -18 -20 -24 -145 -147 -151 -200 -204 -206 -289 -297 -299 -302 -321 -352 -371 -374 -376 -384 0
-1 -18 -20 -24 -145 -147 -151 -200 -204 -206 -289 -294 -304 -306 -321 -352 -367 -369 -379 -384 0
-1 -18 -20 -24 -145 -147 -151 -200 -204 -206 -289 -294 -302 -317 -319 -354 -356 -371 -379 -384 0
-1 -18 -20 -24 -145 -147 -151 -200 -204 -206 -286 -297 -304 -314 -321 -352 -359 -369 -376 -387 0
-1 -18 -20 -24 -145 -147 -151 -200 -204 -206 -286 -297 -302 -309 -319 -354 -364 -371 -376 -387 0
-1 -18 -20 -24 -145 -147 -151 -200 -204 -206 -286 -294 -301 -304 -319 -354 -369 -372 -379 -387 0
-1 -18 -20 -24 -145 -147 -151 -200 -204 -206 -284 -299 -306 -314 -321 -352 -359 -367 -374 -389 0
-1 -18 -20 -24 -145 -147 -151 -200 -204 -206 -284 -299 -302 -309 -317 -356 -364 -371 -374 -389 0
-1 -18 -20 -24 -145 -147 -151 -200 -204 -206 -284 -294 -301 -306 -317 -356 -367 -372 -379 -389 0
-1 -18 -20 -24 -145 -147 -151 -200 -204 -206 -284 -286 -301 -309 -314 -359 -364 -372 -387 -389 0
-1 -18 -20 -24 -145 -147 -151 -200 -204 -206 -284 -286 -294 -302 -321 -352 -371 -379 -387 -389 0
-1 -18 -20 -24 -145 -147 -151 -200 -204 -206 -282 -301 -309 -317 -319 -354 -356 -364 -372 -391 0
-1 -18 -20 -24 -145 -147 -151 -200 -204 -206 -282 -301 -304 -306 -314 -359 -367 -369 -372 -391 0
-1 -18 -20 -24 -145 -147 -151 -200 -204 -206 -282 -297 -299 -309 -314 -359 -364 -374 -376 -391 0
-1 -18 -20 -24 -145 -147 -151 -200 -204 -206 -282 -289 -299 -306 -317 -356 -367 -374 -384 -391 0
-1 -18 -20 -24 -145 -147 -151 -200 -204 -206 -282 -289 -297 -304 -319 -354 -369 -376 -384 -391 0
-1 -18 -19 -26 -145 -146 -153 -198 -205 -206 -287 -297 -299 -303 -320 -353 -370 -374 -376 -386 0
-1 -18 -19 -26 -145 -146 -153 -198 -205 -206 -287 -296 -304 -306 -320 -353 -367 -369 -377 -386 0
-1 -18 -19 -26 -145 -146 -153 -198 -205 -206 -287 -296 -303 -317 -319 -354 -356 -370 -377 -386 0
-1 -18 -19 -26 -145 -146 -153 -198 -205 -206 -286 -297 -304 -316 -320 -353 -357 -369 -376 -387 0
-1 -18 -19 -26 -145 -146 -153 -198 -205 -206 -286 -297 -303 -307 -319 -354 -366 -370 -376 -387 0
-1 -18 -19 -26 -145 -146 -153 -198 -205 -206 -286 -296 -300 -304 -319 -354 -369 -373 -377 -387 0
-1 -18 -19 -26 -145 -146 -153 -198 -205 -206 -284 -299 -306 -316 -320 -353 -357 -367 -374 -389 0
-1 -18 -19 -26 -145 -146 -153 -198 -205 -206 -284 -299 -303 -307 -317 -356 -366 -370 -374 -389 0
-1 -18 -19 -26 -145 -146 -153 -198 -205 -206 -284 -296 -300 -306 -317 -356 -367 -373 -377 -389 0
-1 -18 -19 -26 -145 -146 -153 -198 -205 -206 -284 -286 -300 -307 -316 -357 -366 -373 -387 -389 0
-1 -18 -19 -26 -145 -146 -153 -198 -205 -206 -284 -286 -296 -303 -320 -353 -370 -377 -387 -389 0
-1 -18 -19 -26 -145 -146 -153 -198 -205 -206 -283 -300 -307 -317 -319 -354 -356 -366 -373 -390 0
-1 -18 -19 -26 -145 -146 -153 -198 -205 -206 -283 -300 -304 -306 -316 -357 -367 -369 -373 -390 0
-1 -18 -19 -26 -145 -146 -153 -198 -205 -206 -283 -297 -299 -307 -316 -357 -366 -374 -376 -390 0
-1 -18 -19 -26 -145 -146 -153 -198 -205 -206 -283 -287 -299 -306 -317 -356 -367 -374 -386 -390 0
-1 -18 -19 -26 -145 -146 -153 -198 -205 -206 -283 -287 -297 -304 -319 -354 -369 -376 -386 -390 0
-1 -17 -22 -23 -144 -149 -150 -201 -202 -207 -290 -295 -300 -302 -321 -352 -371 -373 -378 -383 0
-1 -17 -22 -23 -144 -149 -150 -201 -202 -207 -290 -293 -303 -308 -321 -352 -365 -370 -380 -383 0
-1 -17 -22 -23 -144 -149 -150 -201 -202 -207 -290 -293 -302 -315 -320 -353 -358 -371 -380 -383 0
-1 -17 -22 -23 -144 -149 -150 -201 -202 -207 -288 -295 -303 -313 -321 -352 -360 -370 -378 -385 0
-1 -17 -22 -23 -144 -149 -150 -201 -202 -207 -288 -295 -302 -310 -320 -353 -363 -371 -378 -385 0
-1 -17 -22 -23 -144 -149 -150 -201 -202 -207 -288 -293 -301 -303 -320 -353 -370 -372 -380 -385 0
-1 -17 -22 -23 -144 -149 -150 -201 -202 -207 -283 -300 -308 -313 -321 -352 -360 -365 -373 -390 0
-1 -17 -22 -23 -144 -149 -150 -201 -202 -207 -283 -300 -302 -310 -315 -358 -363 -371 -373 -390 0
-1 -17 -22 -23 -144 -149 -150 -201 -202 -207 -283 -293 -301 -308 -315 -358 -365 -372 -380 -390 0
-1 -17 -22 -23 -144 -149 -150 -201 -202 -207 -283 -288 -301 -310 -313 -360 -363 -372 -385 -390 0
-1 -17 -22 -23 -144 -149 -150 -201 -202 -207 -283 -288 -293 -302 -321 -352 -371 -380 -385 -390 0
-1 -17 -22 -23 -144 -149 -150 -201 -202 -207 -282 -301 -310 -315 -320 -353 -358 -363 -372 -391 0
-1 -17 -22 -23 -144 -149 -150 -201 -202 -207 -282 -301 -303 -308 -313 -360 -365 -370 -372 -391 0
-1 -17 -22 -23 -144 -149 -150 -201 -202 -207 -282 -295 -300 -310 -313 -360 -363 -373 -378 -391 0
-1 -17 -22 -23 -144 -149 -150 -201 -202 -207 -282 -290 -300 -308 -315 -358 -365 -373 -383 -391 0
-1 -17 -22 -23 -144 -149 -150 -201 -202 -207 -282 -290 -295 -303 -320 -353 -370 -378 -383 -391 0
-1 -17 -20 -25 -144 -147 -152 -199 -204 -207 -290 -297 -298 -302 -321 -352 -371 -375 -376 -383 0
-1 -17 -20 -25 -144 -147 -152 -199 -204 -207 -290 -293 -305 -306 -321 -352 -367 -368 -380 -383 0
-1 -17 -20 -25 -144 -147 -152 -199 -204 -207 -290 -293 -302 -317 -318 -355 -356 -371 -380 -383 0
-1 -17 -20 -25 -144 -147 -152 -199 -204 -207 -286 -297 -305 -313 -321 -352 -360 -368 -376 -387 0
-1 -17 -20 -25 -144 -147 -152 -199 -204 -207 -286 -297 -302 -310 -318 -355 -363 -371 -376 -387 0
-1 -17 -20 -25 -144 -147 -152 -199 -204 -207 -286 -293 -301 -305 -318 -355 -368 -372 -380 -387 0
-1 -17 -20 -25 -144 -147 -152 -199 -204 -207 -285 -298 -306 -313 -321 -352 -360 -367 -375 -388 0
-1 -17 -20 -25 -144 -147 -152 -199 -204 -207 -285 -298 -302 -310 -317 -356 -363 -371 -375 -388 0
-1 -17 -20 -25 -144 -147 -152 -199 -204 -207 -285 -293 -301 -306 -317 -356 -367 -372 -380 -388 0
-1 -17 -20 -25 -144 -147 -152 -199 -204 -207 -285 -286 -301 -310 -313 -360 -363 -372 -387 -388 0
-1 -17 -20 -25 -144 -147 -152 -199 -204 -207 -285 -286 -293 -302 -321 -352 -371 -380 -387 -388 0
-1 -17 -20 -25 -144 -147 -152 -199 -204 -207 -282 -301 -310 -317 -318 -355 -356 -363 -372 -391 0
-1 -17 -20 -25 -144 -147 -152 -199 -204 -207 -282 -301 -305 -306 -313 -360 -367 -368 -372 -391 0
-1 -17 -20 -25 -144 -147 -152 -199 -204 -207 -282 -297 -298 -310 -313 -360 -363 -375 -376 -391 0
-1 -17 -20 -25 -144 -147 -152 -199 -204 -207 -282 -290 -298 -306 -317 -356 -367 -375 -383 -391 0
-1 -17 -20 -25 -144 -147 -152 -199 -204 -207 -282 -290 -297 -305 -318 -355 -368 -376 -383 -391 0
-1 -17 -19 -27 -144 -146 -154 -197 -205 -207 -288 -297 -298 -303 -320 -353 -370 -375 -376 -385 0
-1 -17 -19 -27 -144 -146 -154 -197 -205 -207 -288 -295 -305 -306 -320 -353 -367 -368 -378 -385 0
-1 -17 -19 -27 -144 -146 -154 -197 -205 -207 -288 -295 -303 -317 -318 -355 -356 -370 -378 -385 0
-1 -17 -19 -27 -144 -146 -154 -197 -205 -207 -286 -297 -305 -315 -320 -353 -358 -368 -376 -387 0
-1 -17 -19 -27 -144 -146 -154 -197 -205 -207 -286 -297 -303 -308 -318 -355 -365 -370 -376 -387 0
-1 -17 -19 -27 -144 -146 -154 -197 -205 -207 -286 -295 -300 -305 -318 -355 -368 -373 -378 -387 0
-1 -17 -19 -27 -144 -146 -154 -197 -205 -207 -285 -298 -306 -315 -320 -353 -358 -367 -375 -388 0
-1 -17 -19 -27 -144 -146 -154 -197 -205 -207 -285 -298 -303 -308 -317 -356 -365 -370 -375 -388 0
-1 -17 -19 -27 -144 -146 -154 -197 -205 -207 -285 -295 -300 -306 -317 -356 -367 -373 -378 -388 0
-1 -17 -19 -27 -144 -146 -154 -197 -205 -207 -285 -286 -300 -308 -315 -358 -365 -373 -387 -388 0
-1 -17 -19 -27 -144 -146 -154 -197 -205 -207 -285 -286 -295 -303 -320 -353 -370 -378 -387 -388 0
-1 -17 -19 -27 -144 -146 -154 -197 -205 -207 -283 -300 -308 -317 -318 -355 -356 -365 -373 -390 0
-1 -17 -19 -27 -144 -146 -154 -197 -205 -207 -283 -300 -305 -306 -315 -358 -367 -368 -373 -390 0
-1 -17 -19 -27 -144 -146 -154 -197 -205 -207 -283 -297 -298 -308 -315 -358 -365 -375 -376 -390 0
-1 -17 -19 -27 -144 -146 -154 -197 -205 -207 -283 -288 -298 -306 -317 -356 -367 -375 -385 -390 0
-1 -17 -19 -27 -144 -146 -154 -197 -205 -207 -283 -288 -297 -305 -318 -355 -368 -376 -385 -390 0
-1 -16 -22 -24 -143 -149 -151 -200 -202 -208 -291 -295 -299 -302 -321 -352 -371 -374 -378 -382 0
-1 -16 -22 -24 -143 -149 -151 -200 -202 -208 -291 -292 -304 -308 -321 -352 -365 -369 -381 -382 0
-1 -16 -22 -24 -143 -149 -151 -200 -202 -208 -291 -292 -302 -315 -319 -354 -358 -371 -381 -382 0
-1 -16 -22 -24 -143 -149 -151 -200 -202 -208 -288 -295 -304 -312 -321 -352 -361 -369 -378 -385 0
-1 -16 -22 -24 -143 -149 -151 -200 -202 -208 -288 -295 -302 -311 -319 -354 -362 -371 -378 -385 0
-1 -16 -22 -24 -143 -149 -151 -200 -202 -208 -288 -292 -301 -304 -319 -354 -369 -372 -381 -385 0
-1 -16 -22 -24 -143 -149 -151 -200 -202 -208 -284 -299 -308 -312 -321 -352 -361 -365 -374 -389 0
-1 -16 -22 -24 -143 -149 -151 -200 -202 -208 -284 -299 -302 -311 -315 -358 -362 -371 -374 -389 0
-1 -16 -22 -24 -143 -149 -151 -200 -202 -208 -284 -292 -301 -308 -315 -358 -365 -372 -381 -389 0
-1 -16 -22 -24 -143 -149 -151 -200 -202 -208 -284 -288 -301 -311 -312 -361 -362 -372 -385 -389 0
-1 -16 -22 -24 -143 -149 -151 -200 -202 -208 -284 -288 -292 -302 -321 -352 -371 -381 -385 -389 0
-1 -16 -22 -24 -143 -149 -151 -200 -202 -208 -282 -301 -311 -315 -319 -354 -358 -362 -372 -391 0
-1 -16 -22 -24 -143 -149 -151 -200 -202 -208 -282 -301 -304 -308 -312 -361 -365 -369 -372 -391 0
-1 -16 -22 -24 -143 -149 -151 -200 -202 -208 -282 -295 -299 -311 -312 -361 -362 -374 -378 -391 0
-1 -16 -22 -24 -143 -149 -151 -200 -202 -208 -282 -291 -299 -308 -315 -358 -365 -374 -382 -391 0
-1 -16 -22 -24 -143 -149 -151 -200 -202 -208 -282 -291 -295 -304 -319 -354 -369 -378 -382 -391 0
-1 -16 -21 -25 -143 -148 -152 -199 -203 -208 -291 -296 -298 -302 -321 -352 -371 -375 -377 -382 0
-1 -16 -21 -25 -143 -148 -152 -199 -203 -208 -291 -292 -305 -307 -321 -352 -366 -368 -381 -382 0
-1 -16 -21 -25 -143 -148 -152 -199 -203 -208 -291 -292 -302 -316 -318 -355 -357 -371 -381 -382 0
-1 -16 -21 -25 -143 -148 -152 -199 -203 -208 -287 -296 -305 -312 -321 -352 -361 -368 -377 -386 0
-1 -16 -21 -25 -143 -148 -152 -199 -203 -208 -287 -296 -302 -311 -318 -355 -362 -371 -377 -386 0
-1 -16 -21 -25 -143 -148 -152 -199 -203 -208 -287 -292 -301 -305 -318 -355 -368 -372 -381 -386 0
-1 -16 -21 -25 -143 -148 -152 -199 -203 -208 -285 -298 -307 -312 -321 -352 -361 -366 -375 -388 0
-1 -16 -21 -25 -143 -148 -152 -199 -203 -208 -285 -298 -302 -311 -316 -357 -362 -371 -375 -388 0
-1 -16 -21 -25 -143 -148 -152 -199 -203 -208 -285 -292 -301 -307 -316 -357 -366 -372 -381 -388 0
-1 -16 -21 -25 -143 -148 -152 -199 -203 -208 -285 -287 -301 -311 -312 -361 -362 -372 -386 -388 0
-1 -16 -21 -25 -143 -148 -152 -199 -203 -208 -285 -287 -292 -302 -321 -352 -371 -381 -386 -388 0
-1 -16 -21 -25 -143 -148 -152 -199 -203 -208 -282 -301 -311 -316 -318 -355 -357 -362 -372 -391 0
-1 -16 -21 -25 -143 -148 -152 -199 -203 -208 -282 -301 -305 -307 -312 -361 -366 -368 -372 -391 0
-1 -16 -21 -25 -143 -148 -152 -199 -203 -208 -282 -296 -298 -311 -312 -361 -362 -375 -377 -391 0
-1 -16 -21 -25 -143 -148 -152 -199 -203 -208 -282 -291 -298 -307 -316 -357 -366 -375 -382 -391 0
-1 -16 -21 -25 -143 -148 -152 -199 -203 -208 -282 -291 -296 -305 -318 -355 -368 -377 -382 -391 0
-1 -16 -19 -28 -143 -146 -155 -196 -205 -208 -288 -296 -298 -304 -319 -354 -369 -375 -377 -385 0
-1 -16 -19 -28 -143 -146 -155 -196 -205 -208 -288 -295 -305 -307 -319 -354 -366 -368 -378 -385 0
-1 -16 -19 -28 -143 -146 -155 -196 -205 -208 -288 -295 -304 -316 -318 -355 -357 -369 -378 -385 0
-1 -16 -19 -28 -143 -146 -155 -196 -205 -208 -287 -296 -305 -315 -319 -354 -358 -368 -377 -386 0
-1 -16 -19 -28 -143 -146 -155 -196 -205 -208 -287 -296 -304 -308 -318 -355 -365 -369 -377 -386 0
-1 -16 -19 -28 -143 -146 -155 -196 -205 -208 -287 -295 -299 -305 -318 -355 -368 -374 -378 -386 0
-1 -16 -19 -28 -143 -146 -155 -196 -205 -208 -285 -298 -307 -315 -319 -354 -358 -366 -375 -388 0
-1 -16 -19 -28 -143 -146 -155 -196 -205 -208 -285 -298 -304 -308 -316 -357 -365 -369 -375 -388 0
-1 -16 -19 -28 -143 -146 -155 -196 -205 -208 -285 -295 -299 -307 -316 -357 -366 -374 -378 -388 0
-1 -16 -19 -28 -143 -146 -155 -196 -205 -208 -285 -287 -299 -308 -315 -358 -365 -374 -386 -388 0
-1 -16 -19 -28 -143 -146 -155 -196 -205 -208 -285 -287 -295 -304 -319 -354 -369 -378 -386 -388 0
-1 -16 -19 -28 -143 -146 -155 -196 -205 -208 -284 -299 -308 -316 -318 -355 -357 -365 -374 -389 0
-1 -16 -19 -28 -143 -146 -155 -196 -205 -208 -284 -299 -305 -307 -315 -358 -366 -368 -374 -389 0
-1 -16 -19 -28 -143 -146 -155 -196 -205 -208 -284 -296 -298 -308 -315 -358 -365 -375 -377 -389 0
-1 -16 -19 -28 -143 -146 -155 -196 -205 -208 -284 -288 -298 -307 -316 -357 -366 -375 -385 -389 0
-1 -16 -19 -28 -143 -146 -155 -196 -205 -208 -284 -288 -296 -305 -318 -355 -368 -377 -385 -389 0
-1 -15 -22 -26 -142 -149 -153 -198 -202 -209 -291 -293 -299 -303 -320 -353 -370 -374 -380 -382 0
-1 -15 -22 -26 -142 -149 -153 -198 -202 -209 -291 -292 -304 -310 -320 -353 -363 -369 -381 -382 0
-1 -15 -22 -26 -142 -149 -153 -198 -202 -209 -291 -292 -303 -313 -319 -354 -360 -370 -381 -382 0
-1 -15 -22 -26 -142 -149 -153 -198 -202 -209 -290 -293 -304 -312 -320 -353 -361 -369 -380 -383 0
-1 -15 -22 -26 -142 -149 -153 -198 -202 -209 -290 -293 -303 -311 -319 -354 -362 -370 -380 -383 0
-1 -15 -22 -26 -142 -149 -153 -198 -202 -209 -290 -292 -300 -304 -319 -354 -369 -373 -381 -383 0
-1 -15 -22 -26 -142 -149 -153 -198 -202 -209 -284 -299 -310 -312 -320 -353 -361 -363 -374 -389 0
-1 -15 -22 -26 -142 -149 -153 -198 -202 -209 -284 -299 -303 -311 -313 -360 -362 -370 -374 -389 0
-1 -15 -22 -26 -142 -149 -153 -198 -202 -209 -284 -292 -300 -310 -313 -360 -363 -373 -381 -389 0
-1 -15 -22 -26 -142 -149 -153 -198 -202 -209 -284 -290 -300 -311 -312 -361 -362 -373 -383 -389 0
-1 -15 -22 -26 -142 -149 -153 -198 -202 -209 -284 -290 -292 -303 -320 -353 -370 -381 -383 -389 0
-1 -15 -22 -26 -142 -149 -153 -198 -202 -209 -283 -300 -311 -313 -319 -354 -360 -362 -373 -390 0
-1 -15 -22 -26 -142 -149 -153 -198 -202 -209 -283 -300 -304 -310 -312 -361 -363 -369 -373 -390 0
-1 -15 -22 -26 -142 -149 -153 -198 -202 -209 -283 -293 -299 -311 -312 -361 -362 -374 -380 -390 0
-1 -15 -22 -26 -142 -149 -153 -198 -202 -209 -283 -291 -299 -310 -313 -360 -363 -374 -382 -390 0
-1 -15 -22 -26 -142 -149 -153 -198 -202 -209 -283 -291 -293 -304 -319 -354 -369 -380 -382 -390 0
-1 -15 -21 -27 -142 -148 -154 -197 -203 -209 -291 -294 -298 -303 -320 -353 -370 -375 -379 -382 0
-1 -15 -21 -27 -142 -148 -154 -197 -203 -209 -291 -292 -305 -309 -320 -353 -364 -368 -381 -382 0
-1 -15 -21 -27 -142 -148 -154 -197 -203 -209 -291 -292 -303 -314 -318 -355 -359 -370 -381 -382 0
-1 -15 -21 -27 -142 -148 -154 -197 -203 -209 -289 -294 -305 -312 -320 -353 -361 -368 -379 -384 0
-1 -15 -21 -27 -142 -148 -154 -197 -203 -209 -289 -294 -303 -311 -318 -355 -362 -370 -379 -384 0
-1 -15 -21 -27 -142 -148 -154 -197 -203 -209 -289 -292 -300 -305 -318 -355 -368 -373 -381 -384 0
-1 -15 -21 -27 -142 -148 -154 -197 -203 -209 -285 -298 -309 -312 -320 -353 -361 -364 -375 -388 0
-1 -15 -21 -27 -142 -148 -154 -197 -203 -209 -285 -298 -303 -311 -314 -359 -362 -370 -375 -388 0
-1 -15 -21 -27 -142 -148 -154 -197 -203 -209 -285 -292 -300 -309 -314 -359 -364 -373 -381 -388 0
-1 -15 -21 -27 -142 -148 -154 -197 -203 -209 -285 -289 -300 -311 -312 -361 -362 -373 -384 -388 0
-1 -15 -21 -27 -142 -148 -154 -197 -203 -209 -285 -289 -292 -303 -320 -353 -370 -381 -384 -388 0
-1 -15 -21 -27 -142 -148 -154 -197 -203 -209 -283 -300 -311 -314 -318 -355 -359 -362 -373 -390 0
-1 -15 -21 -27 -142 -148 -154 -197 -203 -209 -283 -300 -305 -309 -312 -361 -364 -368 -373 -390 0
-1 -15 -21 -27 -142 -148 -154 -197 -203 -209 -283 -294 -298 -311 -312 -361 -362 -375 -379 -390 0
-1 -15 -21 -27 -142 -148 -154 -197 -203 -209 -283 -291 -298 -309 -314 -359 -364 -375 -382 -390 0
-1 -15 -21 -27 -142 -148 -154 -197 -203 -209 -283 -291 -294 -305 -318 -355 -368 -379 -382 -390 0
-1 -15 -20 -28 -142 -147 -155 -196 -204 -209 -290 -294 -298 -304 -319 -354 -369 -375 -379 -383 0
-1 -15 -20 -28 -142 -147 -155 -196 -204 -209 -290 -293 -305 -309 -319 -354 -364 -368 -380 -383 0
-1 -15 -20 -28 -142 -147 -155 -196 -204 -209 -290 -293 -304 -314 -318 -355 -359 -369 -380 -383 0
-1 -15 -20 -28 -142 -147 -155 -196 -204 -209 -289 -294 -305 -313 -319 -354 -360 -368 -379 -384 0
-1 -15 -20 -28 -142 -147 -155 -196 -204 -209 -289 -294 -304 -310 -318 -355 -363 -369 -379 -384 0
-1 -15 -20 -28 -142 -147 -155 -196 -204 -209 -289 -293 -299 -305 -318 -355 -368 -374 -380 -384 0
-1 -15 -20 -28 -142 -147 -155 -196 -204 -209 -285 -298 -309 -313 -319 -354 -360 -364 -375 -388 0
-1 -15 -20 -28 -142 -147 -155 -196 -204 -209 -285 -298 -304 -310 -314 -359 -363 -369 -375 -388 0
-1 -15 -20 -28 -142 -147 -155 -196 -204 -209 -285 -293 -299 -309 -314 -359 -364 -374 -380 -388 0
-1 -15 -20 -28 -142 -147 -155 -196 -204 -209 -285 -289 -299 -310 -313 -360 -363 -374 -384 -388 0
-1 -15 -20 -28 -142 -147 -155 -196 -204 -209 -285 -289 -293 -304 -319 -354 -369 -380 -384 -388 0
-1 -15 -20 -28 -142 -147 -155 -196 -204 -209 -284 -299 -310 -314 -318 -355 -359 -363 -374 -389 0
-1 -15 -20 -28 -142 -147 -155 -196 -204 -209 -284 -299 -305 -309 -313 -360 -364 -368 -374 -389 0
-1 -15 -20 -28 -142 -147 -155 -196 -204 -209 -284 -294 -298 -310 -313 -360 -363 -375 -379 -389 0
-1 -15 -20 -28 -142 -147 -155 -196 -204 -209 -284 -290 -298 -309 -314 -359 -364 -375 -383 -389 0
-1 -15 -20 -28 -142 -147 -155 -196 -204 -209 -284 -290 -294 -305 -318 -355 -368 -379 -383 -389 0
-1 -14 -25 -26 -141 -152 -153 -198 -199 -210 -291 -293 -296 -306 -317 -356 -367 -377 -380 -382 0
-1 -14 -25 -26 -141 -152 -153 -198 -199 -210 -291 -292 -307 -310 -317 -356 -363 -366 -381 -382 0
-1 -14 -25 -26 -141 -152 -153 -198 -199 -210 -291 -292 -306 -313 -316 -357 -360 -367 -381 -382 0
-1 -14 -25 -26 -141 -152 -153 -198 -199 -210 -290 -293 -307 -312 -317 -356 -361 -366 -380 -383 0
-1 -14 -25 -26 -141 -152 -153 -198 -199 -210 -290 -293 -306 -311 -316 -357 -362 -367 -380 -383 0
-1 -14 -25 -26 -141 -152 -153 -198 -199 -210 -290 -292 -297 -307 -316 -357 -366 -376 -381 -383 0
-1 -14 -25 -26 -141 -152 -153 -198 -199 -210 -287 -296 -310 -312 -317 -356 -361 -363 -377 -386 0
-1 -14 -25 -26 -141 -152 -153 -198 -199 -210 -287 -296 -306 -311 -313 -360 -362 -367 -377 -386 0
-1 -14 -25 -26 -141 -152 -153 -198 -199 -210 -287 -292 -297 -310 -313 -360 -363 -376 -381 -386 0
-1 -14 -25 -26 -141 -152 -153 -198 -199 -210 -287 -290 -297 -311 -312 -361 -362 -376 -383 -386 0
-1 -14 -25 -26 -141 -152 -153 -198 -199 -210 -287 -290 -292 -306 -317 -356 -367 -381 -383 -386 0
-1 -14 -25 -26 -141 -152 -153 -198 -199 -210 -286 -297 -311 -313 -316 -357 -360 -362 -376 -387 0
-1 -14 -25 -26 -141 -152 -153 -198 -199 -210 -286 -297 -307 -310 -312 -361 -363 -366 -376 -387 0
-1 -14 -25 -26 -141 -152 -153 -198 -199 -210 -286 -293 -296 -311 -312 -361 -362 -377 -380 -387 0
-1 -14 -25 -26 -141 -152 -153 -198 -199 -210 -286 -291 -296 -310 -313 -360 -363 -377 -382 -387 0
-1 -14 -25 -26 -141 -152 -153 -198 -199 -210 -286 -291 -293 -307 -316 -357 -366 -380 -382 -387 0
-1 -14 -24 -27 -141 -151 -154 -197 -200 -210 -291 -294 -295 -306 -317 -356 -367 -378 -379 -382 0
-1 -14 -24 -27 -141 -151 -154 -197 -200 -210 -291 -292 -308 -309 -317 -356 -364 -365 -381 -382 0
-1 -14 -24 -27 -141 -151 -154 -197 -200 -210 -291 -292 -306 -314 -315 -358 -359 -367 -381 -382 0
-1 -14 -24 -27 -141 -151 -154 -197 -200 -210 -289 -294 -308 -312 -317 -356 -361 -365 -379 -384 0
-1 -14 -24 -27 -141 -151 -154 -197 -200 -210 -289 -294 -306 -311 -315 -358 -362 -367 -379 -384 0
-1 -14 -24 -27 -141 -151 -154 -197 -200 -210 -289 -292 -297 -308 -315 -358 -365 -376 -381 -384 0
-1 -14 -24 -27 -141 -151 -154 -197 -200 -210 -288 -295 -309 -312 -317 -356 -361 -364 -378 -385 0
-1 -14 -24 -27 -141 -151 -154 -197 -200 -210 -288 -295 -306 -311 -314 -359 -362 -367 -378 -385 0
-1 -14 -24 -27 -141 -151 -154 -197 -200 -210 -288 -292 -297 -309 -314 -359 -364 -376 -381 -385 0
-1 -14 -24 -27 -141 -151 -154 -197 -200 -210 -288 -289 -297 -311 -312 -361 -362 -376 -384 -385 0
-1 -14 -24 -27 -141 -151 -154 -197 -200 -210 -288 -289 -292 -306 -317 -356 -367 -381 -384 -385 0
-1 -14 -24 -27 -141 -151 -154 -197 -200 -210 -286 -297 -311 -314 -315 -358 -359 -362 -376 -387 0
-1 -14 -24 -27 -141 -151 -154 -197 -200 -210 -286 -297 -308 -309 -312 -361 -364 -365 -376 -387 0
-1 -14 -24 -27 -141 -151 -154 -197 -200 -210 -286 -294 -295 -311 -312 -361 -362 -378 -379 -387 0
-1 -14 -24 -27 -141 -151 -154 -197 -200 -210 -286 -291 -295 -309 -314 -359 -364 -378 -382 -387 0
-1 -14 -24 -27 -141 -151 -154 -197 -200 -210 -286 -291 -294 -308 -315 -358 -365 -379 -382 -387 0
-1 -14 -23 -28 -141 -150 -155 -196 -201 -210 -290 -294 -295 -307 -316 -357 -366 -378 -379 -383 0
-1 -14 -23 -28 -141 -150 -155 -196 -201 -210 -290 -293 -308 -309 -316 -357 -364 -365 -380 -383 0
-1 -14 -23 -28 -141 -150 -155 -196 -201 -210 -290 -293 -307 -314 -315 -358 -359 -366 -380 -383 0
-1 -14 -23 -28 -141 -150 -155 -196 -201 -210 -289 -294 -308 -313 -316 -357 -360 -365 -379 -384 0
-1 -14 -23 -28 -141 -150 -155 -196 -201 -210 -289 -294 -307 -310 -315 -358 -363 -366 -379 -384 0
-1 -14 -23 -28 -141 -150 -155 -196 -201 -210 -289 -293 -296 -308 -315 -358 -365 -377 -380 -384 0
-1 -14 -23 -28 -141 -150 -155 -196 -201 -210 -288 -295 -309 -313 -316 -357 -360 -364 -378 -385 0
-1 -14 -23 -28 -141 -150 -155 -196 -201 -210 -288 -295 -307 -310 -314 -359 -363 -366 -378 -385 0
-1 -14 -23 -28 -141 -150 -155 -196 -201 -210 -288 -293 -296 -309 -314 -359 -364 -377 -380 -385 0
-1 -14 -23 -28 -141 -150 -155 -196 -201 -210 -288 -289 -296 -310 -313 -360 -363 -377 -384 -385 0
-1 -14 -23 -28 -141 -150 -155 -196 -201 -210 -288 -289 -293 -307 -316 -357 -366 -380 -384 -385 0
-1 -14 -23 -28 -141 -150 -155 -196 -201 -210 -287 -296 -310 -314 -315 -358 -359 -363 -377 -386 0
-1 -14 -23 -28 -141 -150 -155 -196 -201 -210 -287 -296 -308 -309 -313 -360 -364 -365 -377 -386 0
-1 -14 -23 -28 -141 -150 -155 -196 -201 -210 -287 -294 -295 -310 -313 -360 -363 -378 -379 -386 0
-1 -14 -23 -28 -141 -150 -155 -196 -201 -210 -287 -290 -295 -309 -314 -359 -364 -378 -383 -386 0
-1 -14 -23 -28 -141 -150 -155 -196 -201 -210 -287 -290 -294 -308 -315 -358 -365 -379 -383 -386 0
